 vasp.5.4.4.18Apr17-6-g9f103f2a35 (build Jun 30 2017 11:15:00) complex

 executed on    STALLO_VASP_5.4.4 date 2019.11.17  11:10:22

 INCAR:
 POTCAR:   PAW_PBE Sr_sv 07Sep2000
 POTCAR:   PAW_PBE Ti 08Apr2002
 POTCAR:   PAW_PBE O 08Apr2002
 POTCAR:   PAW_PBE Sr_sv 07Sep2000
   VRHFIN =Sr: 4s4p5s

   TITEL  = PAW_PBE Sr_sv 07Sep2000
   POMASS =   87.620; ZVAL   =   10.000    mass and valenz
   ENMAX  =  229.282; ENMIN  =  171.961 eV
   QCUT   =   -4.105; QGAM   =    8.210    optimization parameters

   Description
     l     E      TYP  RCUT    TYP  RCUT
     0   .000     23  2.480
     0   .000     23  2.480
     1   .000     23  2.500
     1   .000     23  2.500
     2   .000     23  2.500
     2   .000     23  2.500

 POTCAR:   PAW_PBE Ti 08Apr2002
   VRHFIN =Ti: d3 s1

   TITEL  = PAW_PBE Ti 08Apr2002
   POMASS =   47.880; ZVAL   =    4.000    mass and valenz
   ENMAX  =  178.330; ENMIN  =  133.747 eV
   QCUT   =   -3.620; QGAM   =    7.241    optimization parameters

[...]

 POTCAR:   PAW_PBE O 08Apr2002
   VRHFIN =O: s2p4

   TITEL  = PAW_PBE O 08Apr2002
   POMASS =   16.000; ZVAL   =    6.000    mass and valenz
   ENMAX  =  400.000; ENMIN  =  300.000 eV
   QCUT   =   -5.520; QGAM   =   11.041    optimization parameters

   Description
     l     E      TYP  RCUT    TYP  RCUT
     0   .000     23  1.200
     0  -.700     23  1.200
     1   .000     23  1.520
     1   .600     23  1.520
     2   .000      7  1.500

 Optimization of the real space projectors (new method)

 maximal supplied QI-value         = 15.12
 optimisation between [QCUT,QGAM] = [ 11.34, 22.83] = [ 36.00,145.93] Ry
 Optimized for a Real-space Cutoff    1.56 Angstroem

   l    n(q)    QCUT    max X(q) W(low)/X(q) W(high)/X(q)  e(spline)
   0     11    11.338     6.584    0.15E-04    0.24E-05    0.13E-07
   0     11    11.338    11.383    0.41E-04    0.15E-04    0.15E-06
   1     10    11.338     3.802    0.90E-05    0.33E-06    0.26E-07
   1     10    11.338    39.081    0.19E-03    0.53E-04    0.42E-06
   2     10    11.338     4.950    0.16E-04    0.40E-04    0.77E-07
   2     10    11.338    88.754    0.21E-03    0.41E-03    0.42E-06
 Optimization of the real space projectors (new method)

[...]

   l    n(q)    QCUT    max X(q) W(low)/X(q) W(high)/X(q)  e(spline)
   2     10    11.404     5.474    0.19E-04    0.47E-04    0.83E-07
   2     10    11.404    20.898    0.26E-03    0.65E-03    0.73E-06
   0     11    11.404    23.292    0.21E-04    0.14E-04    0.20E-07
   0     11    11.404    27.738    0.14E-03    0.16E-03    0.29E-06
   1     10    11.404     9.492    0.33E-04    0.56E-04    0.16E-06
 Optimization of the real space projectors (new method)

 maximal supplied QI-value         = 24.76
 optimisation between [QCUT,QGAM] = [ 11.39, 22.77] = [ 36.31,145.25] Ry
 Optimized for a Real-space Cutoff    1.00 Angstroem

   l    n(q)    QCUT    max X(q) W(low)/X(q) W(high)/X(q)  e(spline)
   0      7    11.387     4.192    0.89E-04    0.26E-03    0.19E-07
   0      7    11.387     8.473    0.42E-03    0.14E-02    0.17E-06
   1      6    11.387     2.474    0.11E-03    0.26E-03    0.18E-07
   1      6    11.387     3.912    0.39E-03    0.87E-03    0.15E-06
 PAW_PBE Sr_sv 07Sep2000                :
 PAW_PBE Ti 08Apr2002                   :
 PAW_PBE O 08Apr2002                    :

 POSCAR: ICSD_CollCode262269
  positions in direct lattice
  velocities in cartesian coordinates
 exchange correlation table for  LEXCH =        8
   RHO(1)=    0.500       N(1)  =     2000
   RHO(2)=  100.500       N(2)  =     4000

 ion  position               nearest neighbor table
   1  0.000  0.000  0.000-   3 2.79   4 2.79   5 2.79   4 2.79   5 2.79   3 2.79   5 2.79   5 2.79
                             3 2.79   4 2.79   4 2.79   3 2.79   2 3.42   2 3.42   2 3.42   2 3.42
   2  0.500  0.500  0.500-   3 1.97   4 1.97   5 1.97   3 1.97   4 1.97   5 1.97   1 3.42   1 3.42
                             1 3.42   1 3.42   1 3.42   1 3.42   1 3.42   1 3.42
   3  0.500  0.500  0.000-   2 1.97   2 1.97   1 2.79   1 2.79   1 2.79   1 2.79
   4  0.500  0.000  0.500-   2 1.97   2 1.97   1 2.79   1 2.79   1 2.79   1 2.79
   5  0.000  0.500  0.500-   2 1.97   2 1.97   1 2.79   1 2.79   1 2.79   1 2.79

  LATTYP: Found a simple cubic cell.
 ALAT       =     3.9468463416

  Lattice vectors:

 A1 = (   3.9468463416,   0.0000000000,   0.0000000000)
 A2 = (   0.0000000000,   3.9468463416,   0.0000000000)
 A3 = (   0.0000000000,   0.0000000000,   3.9468463416)

Analysis of symmetry for initial positions (statically):
 Subroutine PRICEL returns:
 Original cell was already a primitive cell.

 Routine SETGRP: Setting up the symmetry group for a
 simple cubic supercell.

 Subroutine GETGRP returns: Found 48 space group operations
 (whereof 48 operations were pure point group operations)
 out of a pool of 48 trial point group operations.

The static configuration has the point symmetry O_h .

Analysis of symmetry for dynamics (positions and initial velocities):
 Subroutine PRICEL returns:
 Original cell was already a primitive cell.

 Routine SETGRP: Setting up the symmetry group for a
 simple cubic supercell.

 Subroutine GETGRP returns: Found 48 space group operations
 (whereof 48 operations were pure point group operations)
 out of a pool of 48 trial point group operations.

The dynamic configuration has the point symmetry O_h .

 Subroutine INISYM returns: Found 48 space group operations
 (whereof 48 operations are pure point group operations),
 and found     1 'primitive' translations

 KPOINTS: k-density: 4.0

Automatic generation of k-mesh.
Space group operators:
 irot       det(A)        alpha          n_x          n_y          n_z        tau_x        tau_y        tau_z
    1     1.000000     0.000000     1.000000     0.000000     0.000000     0.000000     0.000000     0.000000
    2    -1.000000     0.000000     1.000000     0.000000     0.000000     0.000000     0.000000     0.000000
    3     1.000000   120.000000    -0.577350    -0.577350    -0.577350     0.000000     0.000000     0.000000
    4    -1.000000   120.000000    -0.577350    -0.577350    -0.577350     0.000000     0.000000     0.000000
    5     1.000000   120.000000     0.577350     0.577350     0.577350     0.000000     0.000000     0.000000
    6    -1.000000   120.000000     0.577350     0.577350     0.577350     0.000000     0.000000     0.000000
    7     1.000000    90.000000     0.000000     0.000000    -1.000000     0.000000     0.000000     0.000000
    8    -1.000000    90.000000     0.000000     0.000000    -1.000000     0.000000     0.000000     0.000000
    9     1.000000   180.000000     0.000000     0.707107     0.707107     0.000000     0.000000     0.000000
   10    -1.000000   180.000000     0.000000     0.707107     0.707107     0.000000     0.000000     0.000000
   11     1.000000    90.000000     0.000000     1.000000     0.000000     0.000000     0.000000     0.000000
   12    -1.000000    90.000000     0.000000     1.000000     0.000000     0.000000     0.000000     0.000000
   13     1.000000   180.000000     0.000000     0.000000     1.000000     0.000000     0.000000     0.000000
   14    -1.000000   180.000000     0.000000     0.000000     1.000000     0.000000     0.000000     0.000000
   15     1.000000   120.000000    -0.577350     0.577350     0.577350     0.000000     0.000000     0.000000
   16    -1.000000   120.000000    -0.577350     0.577350     0.577350     0.000000     0.000000     0.000000
   17     1.000000   120.000000    -0.577350     0.577350    -0.577350     0.000000     0.000000     0.000000
   18    -1.000000   120.000000    -0.577350     0.577350    -0.577350     0.000000     0.000000     0.000000
   19     1.000000    90.000000     0.000000     0.000000     1.000000     0.000000     0.000000     0.000000
   20    -1.000000    90.000000     0.000000     0.000000     1.000000     0.000000     0.000000     0.000000
   21     1.000000    90.000000    -1.000000     0.000000     0.000000     0.000000     0.000000     0.000000
   22    -1.000000    90.000000    -1.000000     0.000000     0.000000     0.000000     0.000000     0.000000
   23     1.000000   180.000000     0.707107     0.000000     0.707107     0.000000     0.000000     0.000000
   24    -1.000000   180.000000     0.707107     0.000000     0.707107     0.000000     0.000000     0.000000
   25     1.000000   120.000000     0.577350    -0.577350     0.577350     0.000000     0.000000     0.000000
   26    -1.000000   120.000000     0.577350    -0.577350     0.577350     0.000000     0.000000     0.000000
   27     1.000000   120.000000    -0.577350    -0.577350     0.577350     0.000000     0.000000     0.000000
   28    -1.000000   120.000000    -0.577350    -0.577350     0.577350     0.000000     0.000000     0.000000
   29     1.000000   180.000000     1.000000     0.000000     0.000000     0.000000     0.000000     0.000000
   30    -1.000000   180.000000     1.000000     0.000000     0.000000     0.000000     0.000000     0.000000
   31     1.000000    90.000000     0.000000    -1.000000     0.000000     0.000000     0.000000     0.000000
   32    -1.000000    90.000000     0.000000    -1.000000     0.000000     0.000000     0.000000     0.000000
   33     1.000000   180.000000     0.707107     0.707107     0.000000     0.000000     0.000000     0.000000
   34    -1.000000   180.000000     0.707107     0.707107     0.000000     0.000000     0.000000     0.000000
   35     1.000000    90.000000     1.000000     0.000000     0.000000     0.000000     0.000000     0.000000
   36    -1.000000    90.000000     1.000000     0.000000     0.000000     0.000000     0.000000     0.000000
   37     1.000000   120.000000     0.577350    -0.577350    -0.577350     0.000000     0.000000     0.000000
   38    -1.000000   120.000000     0.577350    -0.577350    -0.577350     0.000000     0.000000     0.000000
   39     1.000000   180.000000     0.000000     1.000000     0.000000     0.000000     0.000000     0.000000
   40    -1.000000   180.000000     0.000000     1.000000     0.000000     0.000000     0.000000     0.000000
   41     1.000000   120.000000     0.577350     0.577350    -0.577350     0.000000     0.000000     0.000000
   42    -1.000000   120.000000     0.577350     0.577350    -0.577350     0.000000     0.000000     0.000000
   43     1.000000   180.000000     0.000000    -0.707107     0.707107     0.000000     0.000000     0.000000
   44    -1.000000   180.000000     0.000000    -0.707107     0.707107     0.000000     0.000000     0.000000
   45     1.000000   180.000000     0.707107    -0.707107     0.000000     0.000000     0.000000     0.000000
   46    -1.000000   180.000000     0.707107    -0.707107     0.000000     0.000000     0.000000     0.000000
   47     1.000000   180.000000     0.707107     0.000000    -0.707107     0.000000     0.000000     0.000000
   48    -1.000000   180.000000     0.707107     0.000000    -0.707107     0.000000     0.000000     0.000000

 Subroutine IBZKPT returns following result:

 Found     20 irreducible k-points:

 Following reciprocal coordinates:
            Coordinates               Weight
[...]
   LORBIT       =     11    0 simple, 1 ext, 2 COOP (PROOUT), +10 PAW based schemes

 Dipole corrections
   LMONO  =      F    monopole corrections only (constant potential shift)
   LDIPOL =      F    correct potential (dipole corrections)
   IDIPOL =      0    1-x, 2-y, 3-z, 4-all directions
   EPSILON=  1.0000000 bulk dielectric constant

 Exchange correlation treatment:
   GGA     =    --    GGA type
   VOSKOWN=      0    Vosko Wilk Nusair interpolation
   LHFCALC =     F    Hartree Fock is set to
   LHFONE  =     F    Hartree Fock one center treatment
   AEXX    =    0.0000 exact exchange contribution

 Linear response parameters
   LEPSILON=     F    determine dielectric tensor
   LRPA    =     F    only Hartree local field effects (RPA)
   LNABLA  =     F    use nabla operator in PAW spheres
   LVEL    =     F    velocity operator in full k-point grid
   LINTERFAST=   F  fast interpolation
   KINTER  =     0    interpolate to denser k-point grid
   CSHIFT  =0.1000    complex shift for real part using Kramers Kronig
   OMEGAMAX=  -1.0    maximum frequency
   DEG_THRESHOLD= 0.2000000E-02 threshold for treating states as degnerate
   RTIME   =   -0.100 relaxation time in fs
  (WPLASMAI=    0.000 imaginary part of plasma frequency in eV, 0.658/RTIME)
   DFIELD  = 0.0000000 0.0000000 0.0000000 field for delta impulse in time

 Orbital magnetization related:
   ORBITALMAG=     F  switch on orbital magnetization
   LCHIMAG   =     F  perturbation theory with respect to B field
   DQ        =  0.001000  dq finite difference perturbation B field
   LLRAUG    =     F  two centre corrections for induced B field

 Static calculation
 charge density and potential will be updated during run
 non-spin polarized calculation
 RMM-DIIS sequential band-by-band and
  variant of blocked Davidson during initial phase
 perform sub-space diagonalisation
    before iterative eigenvector-optimisation
 modified Broyden-mixing scheme, WC =      100.0
 initial mixing is a Kerker type mixing with AMIX =  0.4000 and BMIX =      1.0000
 Hartree-type preconditioning will be used
 using additional bands            4
 real space projection scheme for non local part
 use partial core corrections
 calculate Harris-corrections to forces
   (improved forces if not selfconsistent)
 use gradient corrections
 use of overlap-Matrix (Vanderbilt PP)
 Gauss-broadening in eV      SIGMA  =   0.10

  energy-cutoff  :      500.00
  volume of cell :       61.48
      direct lattice vectors                 reciprocal lattice vectors
     3.946846342  0.000000000  0.000000000     0.253366844  0.000000000  0.000000000
     0.000000000  3.946846342  0.000000000     0.000000000  0.253366844  0.000000000
     0.000000000  0.000000000  3.946846342     0.000000000  0.000000000  0.253366844

  length of vectors
     3.946846342  3.946846342  3.946846342     0.253366844  0.253366844  0.253366844

 k-points in units of 2pi/SCALE and weight: k-density: 4.0
   0.00000000  0.00000000  0.00000000       0.003
   0.03619526  0.00000000  0.00000000       0.017
   0.07239053  0.00000000  0.00000000       0.017
   0.10858579  0.00000000  0.00000000       0.017
   0.03619526  0.03619526  0.00000000       0.035
   0.07239053  0.03619526  0.00000000       0.070
   0.10858579  0.03619526  0.00000000       0.070
   0.07239053  0.07239053  0.00000000       0.035
   0.10858579  0.07239053  0.00000000       0.070
   0.10858579  0.10858579  0.00000000       0.035
   0.03619526  0.03619526  0.03619526       0.023
   0.07239053  0.03619526  0.03619526       0.070
   0.10858579  0.03619526  0.03619526       0.070
   0.07239053  0.07239053  0.03619526       0.070
   0.10858579  0.07239053  0.03619526       0.140
   0.10858579  0.10858579  0.03619526       0.070
   0.07239053  0.07239053  0.07239053       0.023
   0.10858579  0.07239053  0.07239053       0.070
   0.10858579  0.10858579  0.07239053       0.070
   0.10858579  0.10858579  0.10858579       0.023

 k-points in reciprocal lattice and weights: k-density: 4.0
   0.00000000  0.00000000  0.00000000       0.003
   0.14285714  0.00000000  0.00000000       0.017
   0.28571429  0.00000000  0.00000000       0.017
   0.42857143  0.00000000  0.00000000       0.017
   0.14285714  0.14285714  0.00000000       0.035
   0.28571429  0.14285714  0.00000000       0.070
   0.42857143  0.14285714  0.00000000       0.070
   0.28571429  0.28571429  0.00000000       0.035
   0.42857143  0.28571429  0.00000000       0.070
   0.42857143  0.42857143  0.00000000       0.035
   0.14285714  0.14285714  0.14285714       0.023
   0.28571429  0.14285714  0.14285714       0.070
   0.42857143  0.14285714  0.14285714       0.070
   0.28571429  0.28571429  0.14285714       0.070
   0.42857143  0.28571429  0.14285714       0.140
   0.42857143  0.42857143  0.14285714       0.070
   0.28571429  0.28571429  0.28571429       0.023
   0.42857143  0.28571429  0.28571429       0.070
   0.42857143  0.42857143  0.28571429       0.070
   0.42857143  0.42857143  0.42857143       0.023

 position of ions in fractional coordinates (direct lattice)
   0.00000000  0.00000000  0.00000000
   0.50000000  0.50000000  0.50000000
   0.50000000  0.50000000  0.00000000
   0.50000000  0.00000000  0.50000000
   0.00000000  0.50000000  0.50000000

 position of ions in cartesian coordinates  (Angst):
   0.00000000  0.00000000  0.00000000
   1.97342317  1.97342317  1.97342317
   1.97342317  1.97342317  0.00000000
   1.97342317  0.00000000  1.97342317
   0.00000000  1.97342317  1.97342317

 k-point  1 :   0.0000 0.0000 0.0000  plane waves:    1551
 k-point  2 :   0.1429 0.0000 0.0000  plane waves:    1555
 k-point  3 :   0.2857 0.0000 0.0000  plane waves:    1546
 k-point  4 :   0.4286 0.0000 0.0000  plane waves:    1558
 k-point  5 :   0.1429 0.1429 0.0000  plane waves:    1564
 k-point  6 :   0.2857 0.1429 0.0000  plane waves:    1557
 k-point  7 :   0.4286 0.1429 0.0000  plane waves:    1567
 k-point  8 :   0.2857 0.2857 0.0000  plane waves:    1566
 k-point  9 :   0.4286 0.2857 0.0000  plane waves:    1564
 k-point 10 :   0.4286 0.4286 0.0000  plane waves:    1570
 k-point 11 :   0.1429 0.1429 0.1429  plane waves:    1569
 k-point 12 :   0.2857 0.1429 0.1429  plane waves:    1554
 k-point 13 :   0.4286 0.1429 0.1429  plane waves:    1557
 k-point 14 :   0.2857 0.2857 0.1429  plane waves:    1573
 k-point 15 :   0.4286 0.2857 0.1429  plane waves:    1563
 k-point 16 :   0.4286 0.4286 0.1429  plane waves:    1566
 k-point 17 :   0.2857 0.2857 0.2857  plane waves:    1559
 k-point 18 :   0.4286 0.2857 0.2857  plane waves:    1560
 k-point 19 :   0.4286 0.4286 0.2857  plane waves:    1557
 k-point 20 :   0.4286 0.4286 0.4286  plane waves:    1559

 maximum and minimum number of plane-waves per node :       407      378

 maximum number of plane-waves:      1573
 maximum index in each direction:
   IXMAX=    7   IYMAX=    7   IZMAX=    7
   IXMIN=   -7   IYMIN=   -7   IZMIN=   -7

 real space projection operators:
  max/ min on nodes  :        270.07        259.97

 parallel 3D FFT for wavefunctions:
    minimum data exchange during FFTs selected (reduces bandwidth)
 parallel 3D FFT for charge:
    minimum data exchange during FFTs selected (reduces bandwidth)

 Broyden mixing: mesh for mixing (old mesh)
   NGX = 15   NGY = 15   NGZ = 15
  (NGX  = 48   NGY  = 48   NGZ  = 48)
  gives a total of   3375 points

 initial charge density was supplied:
 charge density of overlapping atoms calculated
 number of electron      32.0000000 magnetization
 keeping initial charge density in first step

 Maximum index for non-local projection operator          865
 Maximum index for augmentation-charges         1090 (set IRDMAX)

 First call to EWALD:  gamma=   0.449
 Maximum number of real-space cells 3x 3x 3
 Maximum number of reciprocal cells 3x 3x 3

--------------------------------------- Iteration      1(   1)  ---------------------------------------

 eigenvalue-minimisations  :   800
 total energy-change (2. order) : 0.2985236E+03  (-0.1547145E+04)
 number of electron      32.0000000 magnetization
 augmentation part       32.0000000 magnetization

 Free energy of the ion-electron system (eV)
  alpha Z        PSCENC =       179.60204115
  Ewald energy   TEWEN  =     -1913.70330965
  -Hartree energ DENC   =      -411.87486700
  -exchange      EXHF   =         0.00000000
  -V(xc)+E(xc)   XCENC  =        82.00663498
  PAW double counting   =      1333.61297253    -1284.78446064
  entropy T*S    EENTRO =        -0.00746395
  eigenvalues    EBANDS =        79.35500651
  atomic energy  EATOM  =      2234.31706254
  Solvation  Ediel_sol  =         0.00000000
  free energy    TOTEN  =       298.52361647 eV

  energy without entropy =      298.53108043  energy(sigma->0) =      298.52734845

[...]

 eigenvalue-minimisations  :  1076
 total energy-change (2. order) :-0.3155306E+03  (-0.3035322E+03)
 number of electron      32.0000000 magnetization
 augmentation part       32.0000000 magnetization

[...]

 Broyden mixing:
  rms(total) = 0.18247E+01    rms(broyden)= 0.18244E+01
  rms(prec ) = 0.47565E+01
  weight for this iteration     100.00

[...]

 eigenvalues of (default mixing * dielectric matrix)
  average eigenvalue GAMMA=   0.7810
  0.7810

[...]

 eigenvalue-minimisations  :  1078
 total energy-change (2. order) :-0.1198652E-05  (-0.2793753E-05)
 number of electron      31.9999937 magnetization
 augmentation part        3.4040349 magnetization

 Broyden mixing:
  rms(total) = 0.57948E-03    rms(broyden)= 0.57926E-03
  rms(prec ) = 0.14933E-02
  weight for this iteration     100.00

 eigenvalues of (default mixing * dielectric matrix)
  average eigenvalue GAMMA=   1.5050
  3.1072  3.1072  2.6129  1.2795  1.2795  1.4997  0.7156  1.1134  1.0167  1.0147
  1.0147  0.9020  0.9020

[...]

--------------------------------------- Iteration      1(  19)  ---------------------------------------

 eigenvalue-minimisations  :   843
 total energy-change (2. order) : 0.4702174E-06  (-0.8041381E-06)
 number of electron      31.9999937 magnetization
 augmentation part        3.4040349 magnetization

 Free energy of the ion-electron system (eV)
  alpha Z        PSCENC =       179.60204115
  Ewald energy   TEWEN  =     -1913.70330965
  -Hartree energ DENC   =      -449.55412375
  -exchange      EXHF   =         0.00000000
  -V(xc)+E(xc)   XCENC  =        85.82383457
  PAW double counting   =      1546.11763517    -1503.68417976
  entropy T*S    EENTRO =        -0.00000000
  eigenvalues    EBANDS =      -218.64981349
  atomic energy  EATOM  =      2234.31706254
  Solvation  Ediel_sol  =         0.00000000
  free energy    TOTEN  =       -39.73085321 eV

  energy without entropy =      -39.73085321  energy(sigma->0) =      -39.73085321

 average (electrostatic) potential at core
  the test charge radii are     1.1929  1.2598  0.7215
  (the norm of the test charge is              1.0000)
       1 -36.4711       2 -27.1514       3 -71.2635       4 -71.2635       5 -71.2635

 E-fermi :   2.7642     XC(G=0): -10.9869     alpha+bet :-12.2403

 k-point     1 :       0.0000    0.0000    0.0000
  band No.  band energies     occupation
      1     -30.3961      2.00000
      2     -14.9178      2.00000
      3     -13.9409      2.00000
      4     -13.9409      2.00000
      5     -12.4492      2.00000
      6     -12.4492      2.00000
      7     -12.4492      2.00000
      8      -0.3992      2.00000
      9      -0.3992      2.00000
     10      -0.3992      2.00000
     11       1.3104      2.00000
     12       1.3104      2.00000
     13       1.3104      2.00000
     14       2.0798      2.00000
     15       2.0798      2.00000
     16       2.0798      2.00000
     17       4.0602      0.00000
     18       4.0602      0.00000
     19       4.0602      0.00000
     20       7.8383      0.00000

[...]

 k-point    20 :       0.4286    0.4286    0.4286
  band No.  band energies     occupation
      1     -30.3458      2.00000
      2     -13.9249      2.00000
      3     -13.7874      2.00000
      4     -13.7874      2.00000
      5     -12.6281      2.00000
      6     -12.6281      2.00000
      7     -12.5226      2.00000
      8      -2.0311      2.00000
      9      -1.5822      2.00000
     10      -1.5822      2.00000
     11      -1.2901      2.00000
     12      -1.1891      2.00000
     13      -1.1891      2.00000
     14       2.2606      2.00000
     15       2.2606      2.00000
     16       2.3448      2.00000
     17       6.3846      0.00000
     18       6.3913      0.00000
     19       9.4252      0.00000
     20       9.4750      0.00000

 soft charge-density along one line, spin component           1
         0         1         2         3         4         5         6         7         8         9
 total charge-density along one line

------------------------ aborting loop because EDIFF is reached ----------------------------------------

 total charge

# of ion       s       p       d       tot
    1        1.996   5.790   0.189   7.975
    2        0.557   1.080   2.611   4.248
    3        1.545   3.681   0.000   5.226
    4        1.569   3.443   0.000   5.012
    5        1.588   3.266   0.000   4.854
tot          7.255  17.259   2.800  27.314

  FORCE on cell =-STRESS in cart. coord.  units (eV):
  Direction    XX          YY          ZZ          XY          YZ          ZX
  Alpha Z   179.60204   179.60204   179.60204
  Ewald    -637.90153  -637.90153  -637.90153     0.00000     0.00000     0.00000
  Hartree   149.85271   149.85271   149.85271    -0.00000    -0.00000    -0.00000
  E(xc)    -144.86378  -144.86378  -144.86378     0.00000     0.00000    -0.00000
  Local     -13.96141   -13.96141   -13.96141    -0.00000    -0.00000     0.00000
  n-local  -123.40396  -119.48355  -115.29217    -0.43971    -0.37455    -0.27691
  augment    28.94464    28.94464    28.94464     0.00000    -0.00000     0.00000
  Kinetic   548.52200   560.26261   564.54071    -2.48216    -2.65874    -1.72172
  Fock        0.00000     0.00000     0.00000     0.00000     0.00000     0.00000
  Total       0.05455     0.05455     0.05455    -0.00000    -0.00000    -0.00000
  in kB       1.42149     1.42149     1.42149    -0.00000    -0.00000    -0.00000

 VOLUME and BASIS-vectors are now :
  energy-cutoff  :      500.00
  volume of cell :       61.48
      direct lattice vectors                 reciprocal lattice vectors
     3.946846342  0.000000000  0.000000000     0.253366844  0.000000000  0.000000000
     0.000000000  3.946846342  0.000000000     0.000000000  0.253366844  0.000000000
     0.000000000  0.000000000  3.946846342     0.000000000  0.000000000  0.253366844

  length of vectors
     3.946846342  3.946846342  3.946846342     0.253366844  0.253366844  0.253366844

 FORCES acting on ions
    electron-ion (+dipol)            ewald-force                    non-local-force                 convergence-correction
   -.363E-14 -.393E-14 -.477E-14   -.612E-14 -.325E-14 -.318E-14   0.000E+00 0.000E+00 0.000E+00   -.129E-13 0.901E-14 0.911E-15
   0.697E-14 -.465E-12 -.443E-13   0.477E-14 0.490E-14 0.399E-14   0.000E+00 0.000E+00 0.000E+00   0.209E-14 -.114E-14 -.937E-15
   0.162E-12 -.141E-11 -.152E-11   0.565E-14 0.273E-14 -.453E-14   0.000E+00 0.000E+00 0.000E+00   -.153E-14 0.147E-13 0.422E-14
   0.161E-12 -.610E-14 -.191E-11   0.765E-14 -.446E-14 0.241E-14   0.000E+00 0.000E+00 0.000E+00   0.288E-14 0.124E-13 -.306E-14
   -.552E-14 0.158E-12 0.157E-12   -.117E-13 -.147E-15 0.245E-14   0.000E+00 0.000E+00 0.000E+00   -.106E-13 0.911E-14 -.430E-14
   0.321E-12 -.173E-11 -.332E-11   0.257E-15 -.226E-15 0.113E-14   0.000E+00 0.000E+00 0.000E+00   -.201E-13 0.441E-13 -.317E-14

 POSITION                                       TOTAL-FORCE (eV/Angst)
      0.00000      0.00000      0.00000         0.000000      0.000000      0.000000
      1.97342      1.97342      1.97342         0.000000      0.000000      0.000000
      1.97342      1.97342      0.00000         0.000000      0.000000      0.000000
      1.97342      0.00000      1.97342         0.000000      0.000000      0.000000
      0.00000      1.97342      1.97342         0.000000      0.000000      0.000000
    total drift:                                0.000000     -0.000000     -0.000000

  FREE ENERGIE OF THE ION-ELECTRON SYSTEM (eV)
  free  energy   TOTEN  =       -39.73085321 eV

  energy  without entropy=      -39.73085321  energy(sigma->0) =      -39.73085321

 total charge

# of ion       s       p       d       tot
    1        1.996   5.790   0.189   7.975
    2        0.557   1.080   2.611   4.248
    3        1.545   3.681   0.000   5.226
    4        1.569   3.443   0.000   5.012
    5        1.588   3.266   0.000   4.854
tot          7.255  17.259   2.800  27.314