 vasp.5.4.4.18Apr17-6-g9f103f2a35 (build Jun 30 2017 11:15:00) complex

 executed on    STALLO_VASP_5.4.4 date 2019.11.08  15:20:31

 INCAR:
 POTCAR:   PAW_PBE O 08Apr2002
 POTCAR:   PAW_PBE Sr_sv 07Sep2000
 POTCAR:   PAW_PBE Ti 08Apr2002
 POTCAR:   PAW_PBE O 08Apr2002
   VRHFIN =O: s2p4

   TITEL  = PAW_PBE O 08Apr2002
   POMASS =   16.000; ZVAL   =    6.000    mass and valenz
   ENMAX  =  400.000; ENMIN  =  300.000 eV
   QCUT   =   -5.520; QGAM   =   11.041    optimization parameters

   Description
     l     E      TYP  RCUT    TYP  RCUT
     0   .000     23  1.200
     0  -.700     23  1.200
     1   .000     23  1.520
     1   .600     23  1.520
     2   .000      7  1.500

 POTCAR:   PAW_PBE Sr_sv 07Sep2000
   VRHFIN =Sr: 4s4p5s

   TITEL  = PAW_PBE Sr_sv 07Sep2000
   POMASS =   87.620; ZVAL   =   10.000    mass and valenz
   ENMAX  =  229.282; ENMIN  =  171.961 eV
   QCUT   =   -4.105; QGAM   =    8.210    optimization parameters

[...]

 POTCAR:   PAW_PBE Ti 08Apr2002
   VRHFIN =Ti: d3 s1

   TITEL  = PAW_PBE Ti 08Apr2002
   POMASS =   47.880; ZVAL   =    4.000    mass and valenz
   ENMAX  =  178.330; ENMIN  =  133.747 eV
   QCUT   =   -3.620; QGAM   =    7.241    optimization parameters

   Description
     l     E      TYP  RCUT    TYP  RCUT
     2   .000     23  2.800
     2   .000     23  2.800
     0   .000     23  2.800
     0  1.500     23  2.800
     1  -.400     23  2.800
     3   .000      7   .000

 Optimization of the real space projectors (new method)

 maximal supplied QI-value         = 24.76
 optimisation between [QCUT,QGAM] = [ 11.39, 22.77] = [ 36.31,145.25] Ry
 Optimized for a Real-space Cutoff    1.00 Angstroem

   l    n(q)    QCUT    max X(q) W(low)/X(q) W(high)/X(q)  e(spline)
   0      7    11.387     4.192    0.89E-04    0.26E-03    0.19E-07
   0      7    11.387     8.473    0.42E-03    0.14E-02    0.17E-06
   1      6    11.387     2.474    0.11E-03    0.26E-03    0.18E-07
   1      6    11.387     3.912    0.39E-03    0.87E-03    0.15E-06
 Optimization of the real space projectors (new method)

[...]

   l    n(q)    QCUT    max X(q) W(low)/X(q) W(high)/X(q)  e(spline)
   0     11    11.338     6.584    0.15E-04    0.24E-05    0.13E-07
   0     11    11.338    11.383    0.41E-04    0.15E-04    0.15E-06
   1     10    11.338     3.802    0.90E-05    0.33E-06    0.26E-07
   1     10    11.338    39.081    0.19E-03    0.53E-04    0.42E-06
   2     10    11.338     4.950    0.16E-04    0.40E-04    0.77E-07
   2     10    11.338    88.754    0.21E-03    0.41E-03    0.42E-06
 Optimization of the real space projectors (new method)

 maximal supplied QI-value         = 13.42
 optimisation between [QCUT,QGAM] = [ 11.40, 22.81] = [ 36.42,145.68] Ry
 Optimized for a Real-space Cutoff    1.56 Angstroem

   l    n(q)    QCUT    max X(q) W(low)/X(q) W(high)/X(q)  e(spline)
   2     10    11.404     5.474    0.19E-04    0.47E-04    0.83E-07
   2     10    11.404    20.898    0.26E-03    0.65E-03    0.73E-06
   0     11    11.404    23.292    0.21E-04    0.14E-04    0.20E-07
   0     11    11.404    27.738    0.14E-03    0.16E-03    0.29E-06
   1     10    11.404     9.492    0.33E-04    0.56E-04    0.16E-06
 PAW_PBE O 08Apr2002                    :
 PAW_PBE Sr_sv 07Sep2000                :
 PAW_PBE Ti 08Apr2002                   :

 POSCAR:  O Sr Ti
  positions in direct lattice
  velocities in cartesian coordinates
 exchange correlation table for  LEXCH =        8
   RHO(1)=    0.500       N(1)  =     2000
   RHO(2)=  100.500       N(2)  =     4000

 ion  position               nearest neighbor table
   1  0.500  0.500  0.231-  17 1.92  13 2.80  13 2.80  13 2.80  13 2.80
   2  0.500  0.000  0.307-  17 1.97  17 1.97  13 2.64  13 2.64  14 2.85  14 2.85
   3  0.000  0.500  0.307-  17 1.97  17 1.97  13 2.64  13 2.64  14 2.85  14 2.85
   4  0.500  0.500  0.385-  18 1.95  17 2.06  14 2.79  14 2.79  14 2.79  14 2.79
   5  0.500  0.000  0.462-  18 1.97  18 1.97  14 2.76  14 2.76  15 2.81  15 2.81
   6  0.000  0.500  0.462-  18 1.97  18 1.97  14 2.76  14 2.76  15 2.81  15 2.81
   7  0.500  0.500  0.538-  19 1.94  18 2.00  15 2.79  15 2.79  15 2.79  15 2.79
   8  0.500  0.000  0.615-  19 1.97  19 1.97  15 2.77  15 2.77  16 2.90  16 2.90
   9  0.000  0.500  0.615-  19 1.97  19 1.97  15 2.77  15 2.77  16 2.90  16 2.90
  10  0.500  0.500  0.691-  20 1.86  19 2.01  16 2.79  16 2.79  16 2.79  16 2.79
  11  0.500  0.000  0.767-  20 1.98  20 1.98  16 2.68  16 2.68
  12  0.000  0.500  0.767-  20 1.98  20 1.98  16 2.68  16 2.68
  13  0.000  0.000  0.240-   2 2.64   3 2.64   3 2.64   2 2.64   1 2.80   1 2.80   1 2.80   1 2.80
                            17 3.27  17 3.27  17 3.27  17 3.27  14 3.80
  14  0.000  0.000  0.387-   5 2.76   6 2.76   6 2.76   5 2.76   4 2.79   4 2.79   4 2.79   4 2.79
                             2 2.85   3 2.85   3 2.85   2 2.85  18 3.38  18 3.38  18 3.38  18 3.38
  15  0.000  0.000  0.539-   8 2.77   9 2.77   9 2.77   8 2.77   7 2.79   7 2.79   7 2.79   7 2.79
                             5 2.81   6 2.81   6 2.81   5 2.81  19 3.38  19 3.38  19 3.38  19 3.38
  16  0.000  0.000  0.697-  11 2.68  12 2.68  12 2.68  11 2.68  10 2.79  10 2.79  10 2.79  10 2.79
                             8 2.90   9 2.90   9 2.90   8 2.90  20 3.28  20 3.28  20 3.28  20 3.28
  17  0.500  0.500  0.305-   1 1.92   2 1.97   3 1.97   2 1.97   3 1.97   4 2.06  13 3.27  13 3.27
                            13 3.27  13 3.27  14 3.50  14 3.50  14 3.50  14 3.50
  18  0.500  0.500  0.461-   4 1.95   5 1.97   6 1.97   5 1.97   6 1.97   7 2.00  14 3.38  14 3.38
                            14 3.38  14 3.38  15 3.45  15 3.45  15 3.45  15 3.45
  19  0.500  0.500  0.613-   7 1.94   8 1.97   9 1.97   8 1.97   9 1.97  10 2.01  15 3.38  15 3.38
                            15 3.38  15 3.38  16 3.52  16 3.52  16 3.52  16 3.52
  20  0.500  0.500  0.763-  10 1.86  11 1.98  12 1.98  11 1.98  12 1.98  16 3.28  16 3.28  16 3.28
                            16 3.28

  LATTYP: Found a simple tetragonal cell.
 ALAT       =     3.9468463416
 C/A-ratio  =     6.5404021240

  Lattice vectors:

 A1 = (   3.9468463416,   0.0000000000,   0.0000000000)
 A2 = (   0.0000000000,   3.9468463416,   0.0000000000)
 A3 = (   0.0000000000,   0.0000000000,  25.8139621957)

Analysis of symmetry for initial positions (statically):
 Subroutine PRICEL returns:
 Original cell was already a primitive cell.

 Routine SETGRP: Setting up the symmetry group for a
 simple tetragonal supercell.

 Subroutine GETGRP returns: Found  8 space group operations
 (whereof  8 operations were pure point group operations)
 out of a pool of 16 trial point group operations.

The static configuration has the point symmetry C_4v.

Analysis of symmetry for dynamics (positions and initial velocities):
 Subroutine PRICEL returns:
 Original cell was already a primitive cell.

 Routine SETGRP: Setting up the symmetry group for a
 simple tetragonal supercell.

 Subroutine GETGRP returns: Found  8 space group operations
 (whereof  8 operations were pure point group operations)
 out of a pool of 16 trial point group operations.

The dynamic configuration has the point symmetry C_4v.

 Subroutine INISYM returns: Found  8 space group operations
 (whereof  8 operations are pure point group operations),
 and found     1 'primitive' translations

 KPOINTS: k-density: 4.0

Automatic generation of k-mesh.
Space group operators:
 irot       det(A)        alpha          n_x          n_y          n_z        tau_x        tau_y        tau_z
    1     1.000000     0.000001     1.000000     0.000000     0.000000     0.000000     0.000000     0.000000
    2     1.000000    90.000000     0.000000     0.000000    -1.000000     0.000000     0.000000     0.000000
    3     1.000000   180.000000     0.000000     0.000000     1.000000     0.000000     0.000000     0.000000
    4     1.000000    90.000000     0.000000     0.000000     1.000000     0.000000     0.000000     0.000000
    5    -1.000000   180.000000     0.000000     1.000000     0.000000     0.000000     0.000000     0.000000
    6    -1.000000   180.000000     0.707107     0.707107     0.000000     0.000000     0.000000     0.000000
    7    -1.000000   180.000000     1.000000     0.000000     0.000000     0.000000     0.000000     0.000000
    8    -1.000000   180.000000     0.707107    -0.707107     0.000000     0.000000     0.000000     0.000000

 Subroutine IBZKPT returns following result:

 Found     10 irreducible k-points:

 Following reciprocal coordinates:
            Coordinates               Weight
  0.000000  0.000000  0.000000      1.000000
  0.142857  0.000000  0.000000      4.000000
  0.285714  0.000000  0.000000      4.000000
  0.428571  0.000000  0.000000      4.000000
  0.142857  0.142857  0.000000      4.000000
  0.285714  0.142857  0.000000      8.000000
  0.428571  0.142857  0.000000      8.000000
  0.285714  0.285714  0.000000      4.000000
  0.428571  0.285714  0.000000      8.000000
  0.428571  0.428571  0.000000      4.000000

 Following cartesian coordinates:
            Coordinates               Weight
  0.000000  0.000000  0.000000      1.000000
  0.036195  0.000000  0.000000      4.000000
  0.072391  0.000000  0.000000      4.000000
  0.108586  0.000000  0.000000      4.000000
  0.036195  0.036195  0.000000      4.000000
  0.072391  0.036195  0.000000      8.000000
  0.108586  0.036195  0.000000      8.000000
  0.072391  0.072391  0.000000      4.000000
  0.108586  0.072391  0.000000      8.000000
  0.108586  0.108586  0.000000      4.000000

 SYSTEM =  unknown system
 POSCAR =   O Sr Ti

 Startparameter for this run:
   NWRITE =      2    write-flag & timer
   PREC   = normal    normal or accurate (medium, high low for compatibility)
   ISTART =      0    job   : 0-new  1-cont  2-samecut
   ICHARG =      2    charge: 1-file 2-atom 10-const
   ISPIN  =      1    spin polarized calculation?
   LNONCOLLINEAR =      F non collinear calculations
   LSORBIT =      F    spin-orbit coupling
   INIWAV =      1    electr: 0-lowe 1-rand  2-diag
   LASPH  =      F    aspherical Exc in radial PAW
   METAGGA=      F    non-selfconsistent MetaGGA calc.

 Electronic Relaxation 1
   ENCUT  =  500.0 eV  36.75 Ry    6.06 a.u.   7.20  7.20 47.06*2*pi/ulx,y,z
   ENINI  =  500.0     initial cutoff
   ENAUG  =  605.4 eV  augmentation charge cutoff
   NELM   =     60;   NELMIN=  4; NELMDL=  0     # of ELM steps
   EDIFF  = 0.1E-05   stopping-criterion for ELM
   LREAL  =      T    real-space projection
   NLSPLINE    = F    spline interpolate recip. space projectors
   LCOMPAT=      F    compatible to vasp.4.4
   GGA_COMPAT  = T    GGA compatible to vasp.4.4-vasp.4.6
   LMAXPAW     = -100 max onsite density
   LMAXMIX     =    2 max onsite mixed and CHGCAR
   VOSKOWN=      0    Vosko Wilk Nusair interpolation
   ROPT   =   -0.00050  -0.00050  -0.00050
 Ionic relaxation
   EDIFFG = 0.1E-04   stopping-criterion for IOM
   NSW    =      0    number of steps for IOM
   NBLOCK =      1;   KBLOCK =      1    inner block; outer block
   IBRION =     -1    ionic relax: 0-MD 1-quasi-New 2-CG
   NFREE  =      0    steps in history (QN), initial steepest desc. (CG)
   ISIF   =      2    stress and relaxation
[...]

  energy without entropy =     1612.29640146  energy(sigma->0) =     1612.27937606

[...]

 eigenvalue-minimisations  :  1776
 total energy-change (2. order) :-0.1429746E+04  (-0.1369450E+04)
 number of electron     128.0000000 magnetization
 augmentation part      128.0000000 magnetization

[...]

 Broyden mixing:
  rms(total) = 0.37004E+01    rms(broyden)= 0.36999E+01
  rms(prec ) = 0.39485E+01
  weight for this iteration     100.00

[...]

 eigenvalues of (default mixing * dielectric matrix)
  average eigenvalue GAMMA=   0.7537
  0.7537

[...]

 eigenvalue-minimisations  :  2382
 total energy-change (2. order) : 0.1624114E-03  (-0.4765599E-03)
 number of electron     127.9999797 magnetization
 augmentation part       13.6262064 magnetization

[...]

WARNING in EDDRMM: call to ZHEGV failed, returncode =   6  3     10

[...]

 Broyden mixing:
  rms(total) = 0.41541E-04    rms(broyden)= 0.41534E-04
  rms(prec ) = 0.44666E-04
  weight for this iteration     100.00

 eigenvalues of (default mixing * dielectric matrix)
  average eigenvalue GAMMA=   1.8459
  8.3678  5.8077  4.3212  2.8436  2.8436  2.3095  1.6086  1.6086  1.2122  1.2122
  1.0654  1.0654  0.8687  0.8687  0.9071  0.9071  0.7985  0.7985  0.6311  0.6311
  0.6018  0.6018  0.5765

[...]

--------------------------------------- Iteration      1(  29)  ---------------------------------------

 eigenvalue-minimisations  :   980
 total energy-change (2. order) :-0.8415918E-07  (-0.6254928E-07)
 number of electron     127.9999797 magnetization
 augmentation part       13.6163575 magnetization

 Free energy of the ion-electron system (eV)
  alpha Z        PSCENC =       439.36635759
  Ewald energy   TEWEN  =     24180.74766470
  -Hartree energ DENC   =    -32991.55952086
  -exchange      EXHF   =         0.00000000
  -V(xc)+E(xc)   XCENC  =       342.03248951
  PAW double counting   =      6167.08312556    -5997.03813324
  entropy T*S    EENTRO =        -0.00000115
  eigenvalues    EBANDS =     -1234.92346958
  atomic energy  EATOM  =      8937.26825017
  Solvation  Ediel_sol  =         0.00000000
  free energy    TOTEN  =      -157.02323730 eV

  energy without entropy =     -157.02323614  energy(sigma->0) =     -157.02323672

 average (electrostatic) potential at core
  the test charge radii are     0.7215  1.1929  1.2598
  (the norm of the test charge is              1.0000)
       1 -73.9227       2 -74.5050       3 -74.5050       4 -74.0663       5 -74.1712
       6 -74.1712       7 -74.1583       8 -73.9764       9 -73.9764      10 -74.3976
      11 -73.4600      12 -73.4600      13 -40.2401      14 -39.5103      15 -39.2916
      16 -38.9470      17 -30.1563      18 -30.0374      19 -29.9595      20 -29.6677

 E-fermi :   0.6713     XC(G=0):  -7.2439     alpha+bet : -7.4859

 k-point     1 :       0.0000    0.0000    0.0000
  band No.  band energies     occupation
      1     -34.1518      2.00000
      2     -33.4225      2.00000
      3     -33.2072      2.00000
      4     -32.8726      2.00000
      5     -18.3651      2.00000
      6     -17.9082      2.00000
      7     -17.6988      2.00000
      8     -17.2233      2.00000
      9     -17.1867      2.00000
     10     -16.8360      2.00000
     11     -16.8325      2.00000
     12     -16.7288      2.00000
     13     -16.6903      2.00000
     14     -16.6026      2.00000
     15     -16.3858      2.00000
     16     -16.1256      2.00000
     17     -16.1256      2.00000
     18     -15.9659      2.00000
     19     -15.9387      2.00000
     20     -15.4484      2.00000
     21     -15.4484      2.00000
     22     -15.2579      2.00000
     23     -15.2533      2.00000
     24     -15.2533      2.00000
     25     -14.9572      2.00000
     26     -14.9572      2.00000
     27     -14.9222      2.00000
     28     -14.4824      2.00000
     29      -4.5307      2.00000
     30      -4.0473      2.00000
     31      -3.6371      2.00000
     32      -3.6371      2.00000
     33      -3.5116      2.00000
     34      -3.3067      2.00000
     35      -3.3067      2.00000
     36      -3.1657      2.00000
     37      -3.1536      2.00000
     38      -3.1536      2.00000
     39      -2.7366      2.00000
     40      -2.7366      2.00000
     41      -2.5543      2.00000
     42      -2.5125      2.00000
     43      -2.4184      2.00000
     44      -2.4184      2.00000
     45      -2.1335      2.00000
     46      -2.1335      2.00000
     47      -2.0686      2.00000
     48      -2.0570      2.00000
     49      -1.9405      2.00000
     50      -1.9405      2.00000
     51      -1.7279      2.00000
     52      -1.7279      2.00000
     53      -1.7254      2.00000
     54      -1.6827      2.00000
     55      -1.3262      2.00000
     56      -1.3262      2.00000
     57      -1.1397      2.00000
     58      -1.0294      2.00000
     59      -1.0294      2.00000
     60      -0.9535      2.00000
     61      -0.8164      2.00000
     62      -0.8164      2.00000
     63      -0.2259      2.00000
     64      -0.2259      2.00000
     65       0.9477      0.00009
     66       1.2248      0.00000
     67       1.3963      0.00000
     68       1.4325      0.00000
     69       1.4325      0.00000
     70       1.8583      0.00000
     71       1.9410      0.00000
     72       1.9411      0.00000
     73       2.4690      0.00000
     74       2.4797      0.00000
     75       4.9147      0.00000
     76       5.0685      0.00000

[...]

 k-point    10 :       0.4286    0.4286    0.0000
  band No.  band energies     occupation
      1     -34.1199      2.00000
      2     -33.3898      2.00000
      3     -33.1739      2.00000
      4     -32.8381      2.00000
      5     -17.5779      2.00000
      6     -17.4861      2.00000
      7     -17.2764      2.00000
      8     -17.1013      2.00000
      9     -16.9585      2.00000
     10     -16.8314      2.00000
     11     -16.7891      2.00000
     12     -16.6350      2.00000
     13     -16.6254      2.00000
     14     -16.4660      2.00000
     15     -16.3266      2.00000
     16     -16.1130      2.00000
     17     -16.0904      2.00000
     18     -15.9734      2.00000
     19     -15.8598      2.00000
     20     -15.5470      2.00000
     21     -15.4184      2.00000
     22     -15.4021      2.00000
     23     -15.2613      2.00000
     24     -15.1037      2.00000
     25     -15.0958      2.00000
     26     -14.9083      2.00000
     27     -14.7013      2.00000
     28     -14.6697      2.00000
     29      -5.1870      2.00000
     30      -4.9369      2.00000
     31      -4.8589      2.00000
     32      -4.7971      2.00000
     33      -4.6830      2.00000
     34      -4.5306      2.00000
     35      -4.4955      2.00000
     36      -4.3748      2.00000
     37      -4.3090      2.00000
     38      -4.1829      2.00000
     39      -4.1072      2.00000
     40      -4.0391      2.00000
     41      -4.0364      2.00000
     42      -3.9159      2.00000
     43      -3.8421      2.00000
     44      -3.7462      2.00000
     45      -3.7377      2.00000
     46      -3.5563      2.00000
     47      -3.5049      2.00000
     48      -3.3206      2.00000
     49      -2.9651      2.00000
     50      -2.7689      2.00000
     51      -2.7217      2.00000
     52      -2.0195      2.00000
     53      -1.8004      2.00000
     54      -1.7789      2.00000
     55      -1.4095      2.00000
     56      -1.3897      2.00000
     57      -1.1461      2.00000
     58      -0.9813      2.00000
     59      -0.9381      2.00000
     60      -0.6567      2.00000
     61      -0.6201      2.00000
     62      -0.5614      2.00000
     63      -0.3615      2.00000
     64       0.3722      1.99998
     65       2.9177      0.00000
     66       2.9352      0.00000
     67       3.0930      0.00000
     68       3.1197      0.00000
     69       3.1210      0.00000
     70       3.3285      0.00000
     71       3.3643      0.00000
     72       3.4079      0.00000
     73       3.5706      0.00000
     74       6.6798      0.00000
     75       6.8374      0.00000
     76       6.9221      0.00000

 soft charge-density along one line, spin component           1
         0         1         2         3         4         5         6         7         8         9
 total charge-density along one line

------------------------ aborting loop because EDIFF is reached ----------------------------------------

 total charge

# of ion       s       p       d       tot
    1        1.565   3.388   0.000   4.953
    2        1.553   3.605   0.000   5.158
    3        1.581   3.346   0.000   4.927
    4        1.566   3.454   0.000   5.020
    5        1.553   3.602   0.000   5.155
    6        1.581   3.327   0.000   4.909
    7        1.568   3.464   0.000   5.032
    8        1.554   3.597   0.000   5.151
    9        1.582   3.314   0.000   4.896
   10        1.570   3.471   0.000   5.040
   11        1.557   3.580   0.000   5.137
   12        1.582   3.273   0.000   4.855
   13        2.000   5.778   0.204   7.982
   14        1.996   5.789   0.187   7.972
   15        1.996   5.790   0.189   7.976
   16        1.997   5.791   0.201   7.990
   17        0.563   1.078   2.634   4.274
   18        0.557   1.078   2.613   4.248
   19        0.554   1.068   2.604   4.226
   20        0.533   0.952   2.616   4.102
tot         29.008  68.745  11.249 109.001

  FORCE on cell =-STRESS in cart. coord.  units (eV):
  Direction    XX          YY          ZZ          XY          YZ          ZX
  Alpha Z   439.36636   439.36636   439.36636
  Ewald   29256.16766 29256.16766-34331.60305    -0.00000    -0.00000    -0.00000
  Hartree 31772.36868 31772.36868-30553.16684    -0.00000    -0.00000    -0.00000
  E(xc)    -578.31856  -578.31856  -578.38421    -0.00000     0.00000    -0.00000
  Local  -62758.12698-62758.12698 63159.84878     0.00000     0.00000     0.00000
  n-local  -489.13321  -467.75002  -481.11069    -1.51536    -0.00001     0.00000
  augment   115.80695   115.80695   115.38890    -0.00000     0.00000     0.00000
  Kinetic  2206.92087  2248.19390  2228.91706    -9.32682    -0.00000    -0.00000
  Fock        0.00000     0.00000     0.00000     0.00000     0.00000     0.00000
  Total      -3.62013    -3.62013    -0.74368     0.00000     0.00000     0.00000
  in kB     -14.42380   -14.42380    -2.96309     0.00000     0.00000     0.00000

 VOLUME and BASIS-vectors are now :
  energy-cutoff  :      500.00
  volume of cell :      402.12
      direct lattice vectors                 reciprocal lattice vectors
     3.946846342  0.000000000  0.000000000     0.253366844  0.000000000  0.000000000
     0.000000000  3.946846342  0.000000000     0.000000000  0.253366844  0.000000000
     0.000000000  0.000000000 25.813962196     0.000000000  0.000000000  0.038738726

  length of vectors
     3.946846342  3.946846342 25.813962196     0.253366844  0.253366844  0.038738726

 FORCES acting on ions
    electron-ion (+dipol)            ewald-force                    non-local-force                 convergence-correction
   0.198E-12 -.374E-12 0.156E+04   -.472E-14 0.374E-14 -.157E+04   0.000E+00 -.212E-21 0.121E+02   -.121E-13 -.506E-14 -.136E-03
   0.150E-12 -.504E-13 0.107E+04   -.895E-14 -.867E-14 -.107E+04   0.000E+00 0.000E+00 -.221E+01   0.175E-13 0.307E-14 -.146E-03
   0.654E-15 0.166E-12 0.107E+04   0.137E-13 -.259E-14 -.107E+04   0.529E-22 0.000E+00 -.221E+01   0.617E-14 0.850E-14 -.146E-03
   0.164E-12 -.414E-13 0.657E+03   0.475E-14 -.344E-15 -.659E+03   0.000E+00 0.000E+00 0.255E+01   0.102E-13 -.146E-15 0.678E-04
   0.169E-12 -.810E-13 0.210E+03   -.120E-13 -.431E-14 -.209E+03   0.000E+00 -.212E-21 -.740E+00   -.155E-13 -.227E-13 0.554E-04
   -.103E-13 0.364E-12 0.210E+03   0.143E-13 -.111E-14 -.209E+03   0.000E+00 0.000E+00 -.740E+00   -.181E-13 -.118E-13 0.554E-04
   0.169E-12 0.198E-13 -.213E+03   0.220E-14 -.101E-13 0.212E+03   0.000E+00 0.000E+00 0.166E+01   0.227E-13 0.342E-13 0.304E-04
   0.164E-12 0.214E-14 -.655E+03   -.106E-13 0.201E-14 0.656E+03   0.000E+00 0.000E+00 -.121E+01   -.448E-14 -.263E-14 0.103E-03
   -.376E-14 0.945E-13 -.655E+03   0.806E-14 0.263E-14 0.656E+03   0.000E+00 -.463E-22 -.121E+01   -.119E-13 0.170E-13 0.103E-03
   0.157E-12 0.504E-12 -.105E+04   -.162E-14 -.307E-14 0.104E+04   0.000E+00 -.212E-21 0.566E+01   -.192E-14 0.242E-13 0.253E-03
   0.176E-12 -.168E-12 -.151E+04   -.651E-14 0.191E-14 0.151E+04   -.265E-22 0.000E+00 -.504E+01   0.239E-13 -.142E-14 0.304E-03
   -.113E-13 0.349E-12 -.151E+04   0.208E-14 0.219E-14 0.151E+04   0.529E-22 0.000E+00 -.504E+01   0.113E-13 0.756E-14 0.304E-03
   -.825E-14 -.245E-12 0.249E+04   0.184E-13 0.952E-15 -.249E+04   0.000E+00 -.265E-22 -.473E+01   -.648E-14 0.244E-13 0.756E-04
   -.104E-13 -.392E-13 0.107E+04   -.302E-15 0.647E-14 -.107E+04   0.212E-21 0.000E+00 -.925E+00   0.106E-13 0.961E-14 0.680E-04
   -.139E-14 0.146E-13 -.370E+03   0.141E-13 0.297E-14 0.370E+03   0.000E+00 -.424E-21 -.507E+00   0.218E-13 0.386E-13 0.960E-04
   -.358E-14 0.720E-13 -.180E+04   0.264E-13 0.958E-15 0.180E+04   0.000E+00 -.212E-21 -.212E+01   -.981E-14 0.237E-13 0.570E-03
   0.578E-15 -.265E-12 0.721E+03   -.319E-14 0.622E-14 -.721E+03   -.529E-22 0.000E+00 -.356E+00   0.178E-14 0.238E-15 -.984E-04
   0.281E-14 0.807E-14 0.143E+03   -.623E-14 0.242E-14 -.143E+03   0.529E-22 0.000E+00 -.106E+00   0.559E-14 0.600E-14 0.561E-04
   0.604E-14 0.540E-14 -.432E+03   -.123E-13 0.131E-14 0.432E+03   0.331E-23 0.000E+00 -.834E-01   0.351E-14 0.457E-14 0.821E-04
   -.242E-14 -.126E-13 -.102E+04   -.887E-14 -.362E-14 0.101E+04   0.000E+00 0.662E-23 0.115E+01   -.323E-14 0.365E-14 0.229E-03
   0.131E-11 0.322E-12 0.404E+01   0.288E-13 -.634E-16 -.796E-12   0.294E-21 -.134E-20 -.412E+01   0.516E-13 0.162E-12 0.192E-02

 POSITION                                       TOTAL-FORCE (eV/Angst)
      1.97342      1.97342      5.96263        -0.000000     -0.000000      0.041427
      1.97342      0.00000      7.93437         0.000000     -0.000000      0.019477
      0.00000      1.97342      7.93437        -0.000000     -0.000000      0.019477
      1.97342      1.97342      9.94091        -0.000000      0.000000     -0.033548
      1.97342      0.00000     11.91815         0.000000     -0.000000     -0.033886
      0.00000      1.97342     11.91815         0.000000      0.000000     -0.033886
      1.97342      1.97342     13.89328         0.000000     -0.000000     -0.008743
      1.97342      0.00000     15.86437         0.000000     -0.000000     -0.021316
      0.00000      1.97342     15.86437         0.000000     -0.000000     -0.021316
      1.97342      1.97342     17.84709         0.000000     -0.000000     -0.042630
      1.97342      0.00000     19.80457         0.000000      0.000000      0.015487
      0.00000      1.97342     19.80457         0.000000     -0.000000      0.015487
      0.00000      0.00000      6.18551         0.000000      0.000000     -0.027288
      0.00000      0.00000      9.99051         0.000000     -0.000000      0.042087
      0.00000      0.00000     13.92102         0.000000      0.000000      0.047120
      0.00000      0.00000     17.98568         0.000000      0.000000      0.024604
      1.97342      1.97342      7.88480         0.000000     -0.000000     -0.043649
      1.97342      1.97342     11.89422         0.000000     -0.000000      0.002080
      1.97342      1.97342     15.83246         0.000000     -0.000000      0.031439
      1.97342      1.97342     19.70544         0.000000     -0.000000      0.007579
    total drift:                                0.000000      0.000000     -0.076084

  FREE ENERGIE OF THE ION-ELECTRON SYSTEM (eV)
  free  energy   TOTEN  =      -157.02323730 eV

  energy  without entropy=     -157.02323614  energy(sigma->0) =     -157.02323672

 total charge

# of ion       s       p       d       tot
    1        1.565   3.388   0.000   4.953
    2        1.553   3.605   0.000   5.158
    3        1.581   3.346   0.000   4.927
    4        1.566   3.454   0.000   5.020
    5        1.553   3.602   0.000   5.155
    6        1.581   3.327   0.000   4.909
    7        1.568   3.464   0.000   5.032
    8        1.554   3.597   0.000   5.151
    9        1.582   3.314   0.000   4.896
   10        1.570   3.471   0.000   5.040
   11        1.557   3.580   0.000   5.137
   12        1.582   3.273   0.000   4.855
   13        2.000   5.778   0.204   7.982
   14        1.996   5.789   0.187   7.972
   15        1.996   5.790   0.189   7.976
   16        1.997   5.791   0.201   7.990
   17        0.563   1.078   2.634   4.274
   18        0.557   1.078   2.613   4.248
   19        0.554   1.068   2.604   4.226
   20        0.533   0.952   2.616   4.102
tot         29.008  68.745  11.249 109.001