 vasp.5.4.4.18Apr17-6-g9f103f2a35 (build Jun 30 2017 11:15:00) complex

 executed on    STALLO_VASP_5.4.4 date 2019.11.25  09:16:56

 INCAR:
 POTCAR:   PAW_PBE O 08Apr2002
 POTCAR:   PAW_PBE Sr_sv 07Sep2000
 POTCAR:   PAW_PBE Ti 08Apr2002
 POTCAR:   PAW_PBE O 08Apr2002
   VRHFIN =O: s2p4

   TITEL  = PAW_PBE O 08Apr2002
   POMASS =   16.000; ZVAL   =    6.000    mass and valenz
   ENMAX  =  400.000; ENMIN  =  300.000 eV
   QCUT   =   -5.520; QGAM   =   11.041    optimization parameters

   Description
     l     E      TYP  RCUT    TYP  RCUT
     0   .000     23  1.200
     0  -.700     23  1.200
     1   .000     23  1.520
     1   .600     23  1.520
     2   .000      7  1.500

 POTCAR:   PAW_PBE Sr_sv 07Sep2000
   VRHFIN =Sr: 4s4p5s

   TITEL  = PAW_PBE Sr_sv 07Sep2000
   POMASS =   87.620; ZVAL   =   10.000    mass and valenz
   ENMAX  =  229.282; ENMIN  =  171.961 eV
   QCUT   =   -4.105; QGAM   =    8.210    optimization parameters

[...]

 POTCAR:   PAW_PBE Ti 08Apr2002
   VRHFIN =Ti: d3 s1

   TITEL  = PAW_PBE Ti 08Apr2002
   POMASS =   47.880; ZVAL   =    4.000    mass and valenz
   ENMAX  =  178.330; ENMIN  =  133.747 eV
   QCUT   =   -3.620; QGAM   =    7.241    optimization parameters

   Description
     l     E      TYP  RCUT    TYP  RCUT
     2   .000     23  2.800
     2   .000     23  2.800
     0   .000     23  2.800
     0  1.500     23  2.800
     1  -.400     23  2.800
     3   .000      7   .000

 Optimization of the real space projectors (new method)

 maximal supplied QI-value         = 24.76
 optimisation between [QCUT,QGAM] = [ 11.39, 22.77] = [ 36.31,145.25] Ry
 Optimized for a Real-space Cutoff    1.00 Angstroem

   l    n(q)    QCUT    max X(q) W(low)/X(q) W(high)/X(q)  e(spline)
   0      7    11.387     4.192    0.89E-04    0.26E-03    0.19E-07
   0      7    11.387     8.473    0.42E-03    0.14E-02    0.17E-06
   1      6    11.387     2.474    0.11E-03    0.26E-03    0.18E-07
   1      6    11.387     3.912    0.39E-03    0.87E-03    0.15E-06
 Optimization of the real space projectors (new method)

[...]

   l    n(q)    QCUT    max X(q) W(low)/X(q) W(high)/X(q)  e(spline)
   0     11    11.338     6.584    0.15E-04    0.24E-05    0.13E-07
   0     11    11.338    11.383    0.41E-04    0.15E-04    0.15E-06
   1     10    11.338     3.802    0.90E-05    0.33E-06    0.26E-07
   1     10    11.338    39.081    0.19E-03    0.53E-04    0.42E-06
   2     10    11.338     4.950    0.16E-04    0.40E-04    0.77E-07
   2     10    11.338    88.754    0.21E-03    0.41E-03    0.42E-06
 Optimization of the real space projectors (new method)

 maximal supplied QI-value         = 13.42
 optimisation between [QCUT,QGAM] = [ 11.40, 22.81] = [ 36.42,145.68] Ry
 Optimized for a Real-space Cutoff    1.56 Angstroem

   l    n(q)    QCUT    max X(q) W(low)/X(q) W(high)/X(q)  e(spline)
   2     10    11.404     5.474    0.19E-04    0.47E-04    0.83E-07
   2     10    11.404    20.898    0.26E-03    0.65E-03    0.73E-06
   0     11    11.404    23.292    0.21E-04    0.14E-04    0.20E-07
   0     11    11.404    27.738    0.14E-03    0.16E-03    0.29E-06
   1     10    11.404     9.492    0.33E-04    0.56E-04    0.16E-06
 PAW_PBE O 08Apr2002                    :
 PAW_PBE Sr_sv 07Sep2000                :
 PAW_PBE Ti 08Apr2002                   :

 POSCAR:  O Sr Ti
  positions in direct lattice
  velocities in cartesian coordinates
 exchange correlation table for  LEXCH =        8
   RHO(1)=    0.500       N(1)  =     2000
   RHO(2)=  100.500       N(2)  =     4000

 ion  position               nearest neighbor table
   1  0.500  0.000  0.234-  17 2.05  17 2.05  13 2.93  13 2.93
   2  0.242  0.500  0.308-  17 1.79  18 2.47  13 2.50  13 2.50  14 3.42  14 3.42
   3  0.758  0.500  0.308-  17 1.79  18 2.47  13 2.50  13 2.50  14 3.42  14 3.42
   4  0.000  0.000  0.383-  18 2.02  18 2.02  13 2.35  14 2.89  14 2.89
   5  0.747  0.500  0.453-  18 1.78  19 2.47  14 2.53  14 2.53  15 3.37  15 3.37
   6  0.253  0.500  0.453-  18 1.78  19 2.47  14 2.53  14 2.53  15 3.37  15 3.37
   7  0.500  0.000  0.526-  19 2.03  19 2.03  14 2.36  15 2.89  15 2.89
   8  0.246  0.500  0.596-  19 1.78  20 2.43  15 2.53  15 2.53
   9  0.754  0.500  0.596-  19 1.78  20 2.43  15 2.53  15 2.53
  10  0.000  0.000  0.669-  20 2.02  20 2.02  15 2.38  16 2.98  16 2.98
  11  0.748  0.500  0.739-  20 1.79  16 2.45  16 2.45
  12  0.252  0.500  0.739-  20 1.79  16 2.45  16 2.45
  13  0.000  0.000  0.275-   4 2.35   3 2.50   2 2.50   2 2.50   3 2.50   1 2.93   1 2.93  18 3.42
                            18 3.42  17 3.44  17 3.44  17 3.44  17 3.44  14 4.18  14 4.18
  14  0.500  0.000  0.417-   7 2.36   6 2.53   5 2.53   5 2.53   6 2.53   4 2.89   4 2.89   3 3.42
                             2 3.42   3 3.42   2 3.42  18 3.43  18 3.43  18 3.43  18 3.43  19 3.44
  15  0.000  0.000  0.560-  10 2.38   8 2.53   8 2.53   9 2.53   9 2.53   7 2.89   7 2.89   6 3.37
                             5 3.37   6 3.37   5 3.37  20 3.42  20 3.42  19 3.43  19 3.43  19 3.43
  16  0.500  0.000  0.718-  11 2.45  12 2.45  11 2.45  12 2.45  10 2.98  10 2.98  20 3.48  20 3.48
                            20 3.48  20 3.48  15 4.43  15 4.43
  17  0.500  0.500  0.259-   2 1.79   3 1.79   1 2.05   1 2.05  13 3.44  13 3.44  13 3.44  13 3.44
                            14 3.98  14 3.98
  18  0.000  0.500  0.403-   5 1.78   6 1.78   4 2.02   4 2.02   2 2.47   3 2.47  13 3.42  13 3.42
                            14 3.43  14 3.43  14 3.43  14 3.43  15 3.95  15 3.95
  19  0.500  0.500  0.547-   9 1.78   8 1.78   7 2.03   7 2.03   5 2.47   6 2.47  15 3.43  15 3.43
                            15 3.43  15 3.43  14 3.44  14 3.44
  20  0.000  0.500  0.689-  11 1.79  12 1.79  10 2.02  10 2.02   8 2.43   9 2.43  15 3.42  15 3.42
                            16 3.48  16 3.48  16 3.48  16 3.48

  LATTYP: Found a simple orthorhombic cell.
 ALAT       =     3.9468463416
 B/A-ratio  =     1.4142135624
 C/A-ratio  =     5.5152758581

  Lattice vectors:

 A1 = (   0.0000000000,  -3.9468463416,   0.0000000000)
 A2 = (  -5.5816836249,   0.0000000000,   0.0000000000)
 A3 = (   0.0000000000,   0.0000000000, -21.7679463436)

Analysis of symmetry for initial positions (statically):
 Subroutine PRICEL returns:
 Original cell was already a primitive cell.

 Routine SETGRP: Setting up the symmetry group for a
 simple orthorhombic supercell.

 Subroutine GETGRP returns: Found  4 space group operations
 (whereof  4 operations were pure point group operations)
 out of a pool of  8 trial point group operations.

The static configuration has the point symmetry C_2v.

Analysis of symmetry for dynamics (positions and initial velocities):
 Subroutine PRICEL returns:
 Original cell was already a primitive cell.

 Routine SETGRP: Setting up the symmetry group for a
 simple orthorhombic supercell.

 Subroutine GETGRP returns: Found  4 space group operations
 (whereof  4 operations were pure point group operations)
 out of a pool of  8 trial point group operations.

The dynamic configuration has the point symmetry C_2v.

 Subroutine INISYM returns: Found  4 space group operations
 (whereof  4 operations are pure point group operations),
 and found     1 'primitive' translations

 KPOINTS: k-density: 4.0

Automatic generation of k-mesh.
Space group operators:
 irot       det(A)        alpha          n_x          n_y          n_z        tau_x        tau_y        tau_z
    1     1.000000     0.000000     1.000000     0.000000     0.000000     0.000000     0.000000     0.000000
    2     1.000000   179.999999     0.000000     0.000000     1.000000     0.000000     0.000000     0.000000
    3    -1.000000   180.000000     1.000000     0.000000     0.000000     0.000000     0.000000     0.000000
    4    -1.000000   180.000000     0.000000     1.000000     0.000000     0.000000     0.000000     0.000000

 Subroutine IBZKPT returns following result:

 Found     12 irreducible k-points:

 Following reciprocal coordinates:
            Coordinates               Weight
  0.000000  0.000000  0.000000      1.000000
  0.200000  0.000000  0.000000      2.000000
  0.400000  0.000000  0.000000      2.000000
  0.000000  0.142857  0.000000      2.000000
  0.200000  0.142857  0.000000      4.000000
  0.400000  0.142857  0.000000      4.000000
  0.000000  0.285714  0.000000      2.000000
  0.200000  0.285714  0.000000      4.000000
  0.400000  0.285714  0.000000      4.000000
  0.000000  0.428571  0.000000      2.000000
  0.200000  0.428571  0.000000      4.000000
  0.400000  0.428571  0.000000      4.000000

 Following cartesian coordinates:
            Coordinates               Weight
  0.000000  0.000000  0.000000      1.000000
  0.035831  0.000000  0.000000      2.000000
  0.071663  0.000000  0.000000      2.000000
  0.000000  0.036195  0.000000      2.000000
  0.035831  0.036195  0.000000      4.000000
  0.071663  0.036195  0.000000      4.000000
  0.000000  0.072391  0.000000      2.000000
  0.035831  0.072391  0.000000      4.000000
  0.071663  0.072391  0.000000      4.000000
  0.000000  0.108586  0.000000      2.000000
  0.035831  0.108586  0.000000      4.000000
  0.071663  0.108586  0.000000      4.000000

 SYSTEM =  unknown system
 POSCAR =   O Sr Ti

 Startparameter for this run:
   NWRITE =      2    write-flag & timer
   PREC   = normal    normal or accurate (medium, high low for compatibility)
   ISTART =      0    job   : 0-new  1-cont  2-samecut
   ICHARG =      2    charge: 1-file 2-atom 10-const
   ISPIN  =      1    spin polarized calculation?
   LNONCOLLINEAR =      F non collinear calculations
   LSORBIT =      F    spin-orbit coupling
   INIWAV =      1    electr: 0-lowe 1-rand  2-diag
   LASPH  =      F    aspherical Exc in radial PAW
   METAGGA=      F    non-selfconsistent MetaGGA calc.

 Electronic Relaxation 1
   ENCUT  =  500.0 eV  36.75 Ry    6.06 a.u.  10.18  7.20 39.69*2*pi/ulx,y,z
   ENINI  =  500.0     initial cutoff
   ENAUG  =  605.4 eV  augmentation charge cutoff
   NELM   =     60;   NELMIN=  4; NELMDL= -5     # of ELM steps
   EDIFF  = 0.1E-05   stopping-criterion for ELM
   LREAL  =      T    real-space projection
   NLSPLINE    = F    spline interpolate recip. space projectors
   LCOMPAT=      F    compatible to vasp.4.4
   GGA_COMPAT  = T    GGA compatible to vasp.4.4-vasp.4.6
   LMAXPAW     = -100 max onsite density
   LMAXMIX     =    2 max onsite mixed and CHGCAR
   VOSKOWN=      0    Vosko Wilk Nusair interpolation
   ROPT   =   -0.00050  -0.00050  -0.00050
 Ionic relaxation
   EDIFFG = 0.1E-04   stopping-criterion for IOM
   NSW    =      0    number of steps for IOM
   NBLOCK =      1;   KBLOCK =      1    inner block; outer block
   IBRION =     -1    ionic relax: 0-MD 1-quasi-New 2-CG
   NFREE  =      0    steps in history (QN), initial steepest desc. (CG)
   ISIF   =      2    stress and relaxation
   IWAVPR =     10    prediction:  0-non 1-charg 2-wave 3-comb
   ISYM   =      2    0-nonsym 1-usesym 2-fastsym
   LCORR  =      T    Harris-Foulkes like correction to forces

   POTIM  = 0.5000    time-step for ionic-motion
   TEIN   =    0.0    initial temperature
   TEBEG  =    0.0;   TEEND  =   0.0 temperature during run
[...]

[...]

 eigenvalue-minimisations  :  2328
 total energy-change (2. order) :-0.1401078E+04  (-0.1355850E+04)
 number of electron     128.0000000 magnetization
 augmentation part      128.0000000 magnetization

[...]

 Broyden mixing:
  rms(total) = 0.37927E+01    rms(broyden)= 0.37921E+01
  rms(prec ) = 0.41765E+01
  weight for this iteration     100.00

[...]

 eigenvalues of (default mixing * dielectric matrix)
  average eigenvalue GAMMA=   0.6381
  0.6381

[...]

 eigenvalue-minimisations  :  1387
 total energy-change (2. order) : 0.2777433E-05  (-0.2031192E-06)
 number of electron     127.9999929 magnetization
 augmentation part       13.7850477 magnetization

[...]

 Broyden mixing:
  rms(total) = 0.30279E-03    rms(broyden)= 0.30225E-03
  rms(prec ) = 0.32496E-03
  weight for this iteration     100.00

 eigenvalues of (default mixing * dielectric matrix)
  average eigenvalue GAMMA=   1.5032
  8.7535  4.7084  4.7084  3.2333  2.7395  2.7395  2.1092  2.1092  1.5849  1.5849
  1.4526  1.4526  0.9908  0.9908  1.1186  1.1186  1.1103  1.1103  0.1404  0.2118
  0.6546  0.6546  0.8998  0.8205  0.8205  0.6053  0.6053  0.6709  0.6709  0.7378
  0.7378  0.6801  0.5718  0.3358  0.1662  0.5157

[...]

--------------------------------------- Iteration      1(  42)  ---------------------------------------

 eigenvalue-minimisations  :  1222
 total energy-change (2. order) :-0.4098401E-06  (-0.4474234E-07)
 number of electron     127.9999929 magnetization
 augmentation part       13.7850263 magnetization

 Free energy of the ion-electron system (eV)
  alpha Z        PSCENC =       368.42493316
  Ewald energy   TEWEN  =     15539.52254992
  -Hartree energ DENC   =    -24183.59754952
  -exchange      EXHF   =         0.00000000
  -V(xc)+E(xc)   XCENC  =       339.67531840
  PAW double counting   =      6209.01053925    -6037.84489817
  entropy T*S    EENTRO =        -0.03358932
  eigenvalues    EBANDS =     -1326.41333199
  atomic energy  EATOM  =      8937.26825017
  Solvation  Ediel_sol  =         0.00000000
  free energy    TOTEN  =      -153.98777810 eV

  energy without entropy =     -153.95418878  energy(sigma->0) =     -153.97098344

 average (electrostatic) potential at core
  the test charge radii are     0.7215  1.1929  1.2598
  (the norm of the test charge is              1.0000)
       1 -76.6705       2 -76.9187       3 -76.9187       4 -75.7789       5 -75.6365
       6 -75.6365       7 -74.4039       8 -74.2787       9 -74.2787      10 -73.2091
      11 -73.1570      12 -73.1570      13 -41.6593      14 -40.4531      15 -39.1400
      16 -38.5588      17 -32.0773      18 -31.1586      19 -29.8084      20 -28.6181

 E-fermi :  -0.0956     XC(G=0):  -6.5063     alpha+bet : -6.2772

 k-point     1 :       0.0000    0.0000    0.0000
  band No.  band energies     occupation
      1     -35.6422      2.00000
      2     -34.4197      2.00000
      3     -33.1017      2.00000
      4     -32.4913      2.00000
      5     -19.9291      2.00000
      6     -19.6783      2.00000
      7     -19.2463      2.00000
      8     -18.9118      2.00000
      9     -18.5973      2.00000
     10     -18.3738      2.00000
     11     -17.7593      2.00000
     12     -17.6199      2.00000
     13     -17.2662      2.00000
     14     -17.2632      2.00000
     15     -17.2253      2.00000
     16     -17.0028      2.00000
     17     -16.5058      2.00000
     18     -16.3199      2.00000
     19     -16.1093      2.00000
     20     -16.0947      2.00000
     21     -15.9478      2.00000
     22     -15.8357      2.00000
     23     -15.1837      2.00000
     24     -14.7949      2.00000
     25     -14.7826      2.00000
     26     -14.5746      2.00000
     27     -14.4479      2.00000
     28     -13.7408      2.00000
     29      -6.4065      2.00000
     30      -6.3493      2.00000
     31      -5.6474      2.00000
     32      -5.5193      2.00000
     33      -5.3305      2.00000
     34      -5.1553      2.00000
     35      -5.0673      2.00000
     36      -4.9477      2.00000
     37      -4.8228      2.00000
     38      -4.7782      2.00000
     39      -4.4579      2.00000
     40      -4.2166      2.00000
     41      -4.1697      2.00000
     42      -4.0806      2.00000
     43      -4.0376      2.00000
     44      -4.0352      2.00000
     45      -3.7170      2.00000
     46      -3.5805      2.00000
     47      -3.3705      2.00000
     48      -3.1376      2.00000
     49      -2.9267      2.00000
     50      -2.8445      2.00000
     51      -2.7608      2.00000
     52      -2.7106      2.00000
     53      -2.6517      2.00000
     54      -2.3696      2.00000
     55      -2.0227      2.00000
     56      -1.8894      2.00000
     57      -1.8373      2.00000
     58      -1.6558      2.00000
     59      -1.4348      2.00000
     60      -1.4128      2.00000
     61      -1.3341      2.00000
     62      -1.0169      2.00000
     63      -0.7072      2.00000
     64      -0.0948      0.99100
     65      -0.0792      0.81654
     66       0.2122      0.00001
     67       0.7317      0.00000
     68       1.2957      0.00000
     69       1.4971      0.00000
     70       1.7185      0.00000
     71       2.6580      0.00000
     72       2.7949      0.00000
     73       3.1666      0.00000
     74       3.7760      0.00000
     75       4.2114      0.00000
     76       5.1603      0.00000

[...]

 k-point    12 :       0.4000    0.4286    0.0000
  band No.  band energies     occupation
      1     -35.6192      2.00000
      2     -34.3985      2.00000
      3     -33.0806      2.00000
      4     -32.4687      2.00000
      5     -20.2245      2.00000
      6     -19.4500      2.00000
      7     -19.0458      2.00000
      8     -18.9919      2.00000
      9     -18.8397      2.00000
     10     -18.1497      2.00000
     11     -17.6978      2.00000
     12     -17.6288      2.00000
     13     -17.4879      2.00000
     14     -17.2652      2.00000
     15     -17.0667      2.00000
     16     -16.7781      2.00000
     17     -16.5898      2.00000
     18     -16.4088      2.00000
     19     -16.3661      2.00000
     20     -15.9888      2.00000
     21     -15.9029      2.00000
     22     -15.6225      2.00000
     23     -15.0753      2.00000
     24     -14.7946      2.00000
     25     -14.7640      2.00000
     26     -14.5883      2.00000
     27     -14.3294      2.00000
     28     -13.4218      2.00000
     29      -6.6186      2.00000
     30      -6.3349      2.00000
     31      -6.2948      2.00000
     32      -6.1056      2.00000
     33      -5.8256      2.00000
     34      -5.5669      2.00000
     35      -5.4081      2.00000
     36      -5.1421      2.00000
     37      -5.0412      2.00000
     38      -4.8476      2.00000
     39      -4.8205      2.00000
     40      -4.3805      2.00000
     41      -4.1340      2.00000
     42      -4.1095      2.00000
     43      -4.0318      2.00000
     44      -3.9204      2.00000
     45      -3.7049      2.00000
     46      -3.6827      2.00000
     47      -3.5577      2.00000
     48      -3.4754      2.00000
     49      -3.0154      2.00000
     50      -2.9295      2.00000
     51      -2.8771      2.00000
     52      -2.7951      2.00000
     53      -2.6394      2.00000
     54      -2.4771      2.00000
     55      -2.2130      2.00000
     56      -2.0658      2.00000
     57      -1.8983      2.00000
     58      -1.5100      2.00000
     59      -1.4825      2.00000
     60      -1.4627      2.00000
     61      -0.9406      2.00000
     62      -0.5330      2.00000
     63      -0.3265      1.99891
     64      -0.2678      1.98515
     65       0.0464      0.04463
     66       0.1391      0.00090
     67       0.5295      0.00000
     68       1.0251      0.00000
     69       1.4396      0.00000
     70       1.4916      0.00000
     71       1.8053      0.00000
     72       2.0153      0.00000
     73       2.7501      0.00000
     74       3.2650      0.00000
     75       3.7354      0.00000
     76       5.2481      0.00000

 soft charge-density along one line, spin component           1
         0         1         2         3         4         5         6         7         8         9
 total charge-density along one line

------------------------ aborting loop because EDIFF is reached ----------------------------------------

 total charge

# of ion       s       p       d       tot
    1        1.561   3.385   0.000   4.945
    2        1.577   3.435   0.000   5.012
    3        1.577   3.435   0.000   5.012
    4        1.562   3.462   0.000   5.024
    5        1.577   3.435   0.000   5.012
    6        1.577   3.435   0.000   5.012
    7        1.562   3.460   0.000   5.022
    8        1.578   3.434   0.000   5.011
    9        1.578   3.434   0.000   5.011
   10        1.564   3.450   0.000   5.014
   11        1.582   3.410   0.000   4.992
   12        1.582   3.410   0.000   4.992
   13        2.011   5.793   0.269   8.073
   14        2.008   5.791   0.255   8.053
   15        2.007   5.791   0.249   8.046
   16        1.999   5.795   0.211   8.005
   17        0.558   0.860   2.856   4.274
   18        0.572   0.938   2.865   4.375
   19        0.568   0.934   2.855   4.357
   20        0.572   0.944   2.837   4.353
tot         29.171  68.029  12.398 109.598

  FORCE on cell =-STRESS in cart. coord.  units (eV):
  Direction    XX          YY          ZZ          XY          YZ          ZX
  Alpha Z   368.42493   368.42493   368.42493
  Ewald   20300.18288 20538.98927-25299.66303    -0.00000     0.00000     0.00000
  Hartree 22740.54050 22895.28874-21452.07514    -0.00000    -0.00000    -0.00000
  E(xc)    -579.95427  -574.72778  -577.11198    -0.00000    -0.00000     0.00000
  Local  -44677.71326-45090.12412 45102.61348     0.00000    -0.00000    -0.00000
  n-local  -484.37488  -487.92691  -495.38762    -0.16900    -0.00000    -0.00000
  augment   115.21628   115.11747   115.44928     0.00000     0.00000     0.00000
  Kinetic  2225.93439  2228.94960  2238.85994     0.20821    -0.00001     0.00002
  Fock        0.00000     0.00000     0.00000     0.00000     0.00000     0.00000
  Total       8.25658    -6.00879     1.10987     0.00000     0.00000     0.00000
  in kB      27.58532   -20.07544     3.70808     0.00000     0.00000     0.00000

 VOLUME and BASIS-vectors are now :
  energy-cutoff  :      500.00
  volume of cell :      479.55
      direct lattice vectors                 reciprocal lattice vectors
     5.581683625  0.000000000  0.000000000     0.179157413  0.000000000  0.000000000
     0.000000000  3.946846342  0.000000000     0.000000000  0.253366844  0.000000000
     0.000000000  0.000000000 21.767946344     0.000000000  0.000000000  0.045939106

  length of vectors
     5.581683625  3.946846342 21.767946344     0.179157413  0.253366844  0.045939106

 FORCES acting on ions
    electron-ion (+dipol)            ewald-force                    non-local-force                 convergence-correction
   0.198E-12 0.136E-12 0.113E+04   -.187E-13 -.276E-14 -.114E+04   0.000E+00 0.000E+00 0.551E+01   -.923E-13 0.103E-13 -.464E-02
   -.390E+02 0.130E-12 0.828E+03   0.302E+02 -.470E-14 -.818E+03   0.882E+01 0.000E+00 -.103E+02   0.695E-02 -.141E-13 -.135E-01
   0.390E+02 0.763E-12 0.828E+03   -.302E+02 -.706E-14 -.818E+03   -.882E+01 0.000E+00 -.103E+02   -.695E-02 -.235E-13 -.135E-01
   0.493E-14 -.137E-12 0.470E+03   -.309E-13 -.548E-14 -.469E+03   0.000E+00 0.000E+00 -.104E+01   -.409E-13 0.157E-13 -.107E-01
   -.231E+02 0.205E-12 0.153E+03   0.142E+02 0.101E-13 -.143E+03   0.899E+01 0.000E+00 -.106E+02   -.139E-03 -.259E-13 -.109E-01
   0.231E+02 0.360E-13 0.153E+03   -.142E+02 0.904E-14 -.143E+03   -.899E+01 0.000E+00 -.106E+02   0.139E-03 -.170E-13 -.109E-01
   0.234E-12 -.432E-13 -.199E+03   0.858E-14 0.159E-14 0.200E+03   0.000E+00 0.000E+00 -.738E+00   0.223E-14 0.346E-14 -.104E-01
   -.355E+02 0.720E-13 -.515E+03   0.269E+02 -.127E-14 0.525E+03   0.857E+01 0.173E-17 -.105E+02   0.160E-03 -.208E-13 -.103E-01
   0.355E+02 0.641E-12 -.515E+03   -.269E+02 -.169E-14 0.525E+03   -.857E+01 -.173E-17 -.105E+02   -.160E-03 0.168E-13 -.103E-01
   0.414E-13 -.389E-12 -.833E+03   -.308E-13 0.107E-14 0.834E+03   0.000E+00 0.000E+00 -.837E+00   0.662E-13 -.759E-14 -.706E-02
   -.939E+01 0.346E-12 -.112E+04   0.445E+00 0.758E-14 0.113E+04   0.892E+01 0.000E+00 -.135E+02   -.397E-03 -.132E-13 0.260E-02
   0.939E+01 0.209E-12 -.112E+04   -.445E+00 0.635E-14 0.113E+04   -.892E+01 0.000E+00 -.135E+02   0.397E-03 0.324E-13 0.260E-02
   0.392E-14 0.595E-13 0.178E+04   0.101E-13 0.599E-14 -.177E+04   0.000E+00 0.000E+00 -.719E+01   0.386E-13 0.145E-13 -.133E-01
   0.897E-13 -.740E-14 0.719E+03   0.296E-15 -.118E-13 -.713E+03   0.000E+00 0.000E+00 -.689E+01   0.289E-14 0.312E-13 -.191E-01
   0.199E-12 -.627E-13 -.395E+03   -.294E-13 0.652E-14 0.402E+03   0.000E+00 0.000E+00 -.669E+01   0.657E-13 0.326E-13 -.168E-01
   0.100E-12 -.437E-13 -.160E+04   -.455E-13 -.183E-13 0.160E+04   0.000E+00 0.000E+00 -.209E+01   0.296E-13 0.272E-13 -.205E-02
   -.562E-14 -.297E-13 0.748E+03   0.275E-13 0.396E-14 -.746E+03   0.000E+00 0.000E+00 -.214E+01   -.197E-13 -.313E-14 -.532E-02
   -.202E-14 -.270E-14 0.302E+03   -.365E-13 -.106E-14 -.301E+03   0.000E+00 0.000E+00 -.136E+01   -.729E-14 -.104E-13 -.731E-02
   0.558E-12 0.450E-14 -.150E+03   -.157E-13 -.461E-14 0.151E+03   0.000E+00 0.000E+00 -.137E+01   -.232E-13 -.102E-13 -.699E-02
   0.529E-13 -.738E-13 -.561E+03   -.141E-12 -.359E-14 0.562E+03   0.000E+00 0.000E+00 -.130E+01   0.104E-13 -.396E-14 -.484E-02
   0.966E-10 0.181E-11 0.116E+03   -.227E-13 -.102E-13 -.114E-12   0.000E+00 0.000E+00 -.116E+03   -.378E-13 0.342E-13 -.173E+00

 POSITION                                       TOTAL-FORCE (eV/Angst)
      2.79084      0.00000      5.09254        -0.000000     -0.000000     -0.018944
      1.35012      1.97342      6.69654         0.026853      0.000000     -0.093238
      4.23156      1.97342      6.69654        -0.026853     -0.000000     -0.093238
      0.00000      0.00000      8.33555        -0.000000     -0.000000     -0.076156
      4.16948      1.97342      9.85905         0.029499     -0.000000     -0.033744
      1.41221      1.97342      9.85905        -0.029499      0.000000     -0.033744
      2.79084      0.00000     11.44509        -0.000000     -0.000000     -0.028187
      1.37071      1.97342     12.98452         0.028681      0.000000     -0.005933
      4.21097      1.97342     12.98452        -0.028681     -0.000000     -0.005933
      0.00000      0.00000     14.57196        -0.000000     -0.000000     -0.002560
      4.17270      1.97342     16.08959        -0.032915     -0.000000      0.051435
      1.40899      1.97342     16.08959         0.032915     -0.000000      0.051435
      0.00000      0.00000      5.98150        -0.000000     -0.000000     -0.012322
      2.79084      0.00000      9.08733        -0.000000     -0.000000      0.036327
      0.00000      0.00000     12.19271        -0.000000     -0.000000      0.083177
      2.79084      0.00000     15.62897        -0.000000     -0.000000      0.022822
      2.79084      1.97342      5.63002        -0.000000     -0.000000      0.052516
      0.00000      1.97342      8.76916        -0.000000     -0.000000      0.044889
      2.79084      1.97342     11.90542        -0.000000     -0.000000      0.074093
      0.00000      1.97342     14.98898        -0.000000     -0.000000     -0.012696
    total drift:                                0.000000      0.000000      0.033634

  FREE ENERGIE OF THE ION-ELECTRON SYSTEM (eV)
  free  energy   TOTEN  =      -153.98777810 eV

  energy  without entropy=     -153.95418878  energy(sigma->0) =     -153.97098344

 total charge

# of ion       s       p       d       tot
    1        1.561   3.385   0.000   4.945
    2        1.577   3.435   0.000   5.012
    3        1.577   3.435   0.000   5.012
    4        1.562   3.462   0.000   5.024
    5        1.577   3.435   0.000   5.012
    6        1.577   3.435   0.000   5.012
    7        1.562   3.460   0.000   5.022
    8        1.578   3.434   0.000   5.011
    9        1.578   3.434   0.000   5.011
   10        1.564   3.450   0.000   5.014
   11        1.582   3.410   0.000   4.992
   12        1.582   3.410   0.000   4.992
   13        2.011   5.793   0.269   8.073
   14        2.008   5.791   0.255   8.053
   15        2.007   5.791   0.249   8.046
   16        1.999   5.795   0.211   8.005
   17        0.558   0.860   2.856   4.274
   18        0.572   0.938   2.865   4.375
   19        0.568   0.934   2.855   4.357
   20        0.572   0.944   2.837   4.353
tot         29.171  68.029  12.398 109.598