 vasp.5.4.4.18Apr17-6-g9f103f2a35 (build Jun 30 2017 11:15:00) complex

 executed on    STALLO_VASP_5.4.4 date 2019.11.08  11:12:30

 INCAR:
 POTCAR:   PAW_PBE O 08Apr2002
 POTCAR:   PAW_PBE Sr_sv 07Sep2000
 POTCAR:   PAW_PBE Ti 08Apr2002
 POTCAR:   PAW_PBE O 08Apr2002
   VRHFIN =O: s2p4

   TITEL  = PAW_PBE O 08Apr2002
   POMASS =   16.000; ZVAL   =    6.000    mass and valenz
   ENMAX  =  400.000; ENMIN  =  300.000 eV
   QCUT   =   -5.520; QGAM   =   11.041    optimization parameters

   Description
     l     E      TYP  RCUT    TYP  RCUT
     0   .000     23  1.200
     0  -.700     23  1.200
     1   .000     23  1.520
     1   .600     23  1.520
     2   .000      7  1.500

 POTCAR:   PAW_PBE Sr_sv 07Sep2000
   VRHFIN =Sr: 4s4p5s

   TITEL  = PAW_PBE Sr_sv 07Sep2000
   POMASS =   87.620; ZVAL   =   10.000    mass and valenz
   ENMAX  =  229.282; ENMIN  =  171.961 eV
   QCUT   =   -4.105; QGAM   =    8.210    optimization parameters

[...]

 POTCAR:   PAW_PBE Ti 08Apr2002
   VRHFIN =Ti: d3 s1

   TITEL  = PAW_PBE Ti 08Apr2002
   POMASS =   47.880; ZVAL   =    4.000    mass and valenz
   ENMAX  =  178.330; ENMIN  =  133.747 eV
   QCUT   =   -3.620; QGAM   =    7.241    optimization parameters

   Description
     l     E      TYP  RCUT    TYP  RCUT
     2   .000     23  2.800
     2   .000     23  2.800
     0   .000     23  2.800
     0  1.500     23  2.800
     1  -.400     23  2.800
     3   .000      7   .000

 Optimization of the real space projectors (new method)

 maximal supplied QI-value         = 24.76
 optimisation between [QCUT,QGAM] = [ 11.39, 22.77] = [ 36.31,145.25] Ry
 Optimized for a Real-space Cutoff    1.00 Angstroem

   l    n(q)    QCUT    max X(q) W(low)/X(q) W(high)/X(q)  e(spline)
   0      7    11.387     4.192    0.89E-04    0.26E-03    0.19E-07
   0      7    11.387     8.473    0.42E-03    0.14E-02    0.17E-06
   1      6    11.387     2.474    0.11E-03    0.26E-03    0.18E-07
   1      6    11.387     3.912    0.39E-03    0.87E-03    0.15E-06
 Optimization of the real space projectors (new method)

[...]

   l    n(q)    QCUT    max X(q) W(low)/X(q) W(high)/X(q)  e(spline)
   0     11    11.338     6.584    0.15E-04    0.24E-05    0.13E-07
   0     11    11.338    11.383    0.41E-04    0.15E-04    0.15E-06
   1     10    11.338     3.802    0.90E-05    0.33E-06    0.26E-07
   1     10    11.338    39.081    0.19E-03    0.53E-04    0.42E-06
   2     10    11.338     4.950    0.16E-04    0.40E-04    0.77E-07
   2     10    11.338    88.754    0.21E-03    0.41E-03    0.42E-06
 Optimization of the real space projectors (new method)

 maximal supplied QI-value         = 13.42
 optimisation between [QCUT,QGAM] = [ 11.40, 22.81] = [ 36.42,145.68] Ry
 Optimized for a Real-space Cutoff    1.56 Angstroem

   l    n(q)    QCUT    max X(q) W(low)/X(q) W(high)/X(q)  e(spline)
   2     10    11.404     5.474    0.19E-04    0.47E-04    0.83E-07
   2     10    11.404    20.898    0.26E-03    0.65E-03    0.73E-06
   0     11    11.404    23.292    0.21E-04    0.14E-04    0.20E-07
   0     11    11.404    27.738    0.14E-03    0.16E-03    0.29E-06
   1     10    11.404     9.492    0.33E-04    0.56E-04    0.16E-06
 PAW_PBE O 08Apr2002                    :
 PAW_PBE Sr_sv 07Sep2000                :
 PAW_PBE Ti 08Apr2002                   :

 POSCAR:  O Sr Ti
  positions in cartesian coordinates
 exchange correlation table for  LEXCH =        8
   RHO(1)=    0.500       N(1)  =     2000
   RHO(2)=  100.500       N(2)  =     4000

 ion  position               nearest neighbor table
   1  0.250  0.500  0.199-  17 1.97  13 2.79  13 2.79
   2  0.500  0.000  0.259-  17 1.97  17 1.97  14 2.79  13 2.79  13 2.79
   3  0.250  0.500  0.319-  17 1.97  18 1.97  14 2.79  14 2.79  13 2.79  13 2.79
   4  0.750  0.500  0.319-  18 1.97  17 1.97  14 2.79  14 2.79  13 2.79  13 2.79
   5  0.000  0.000  0.380-  18 1.97  18 1.97  13 2.79  15 2.79  14 2.79  14 2.79
   6  0.750  0.500  0.440-  19 1.97  18 1.97  15 2.79  15 2.79  14 2.79  14 2.79
   7  0.250  0.500  0.440-  19 1.97  18 1.97  14 2.79  15 2.79  14 2.79  15 2.79
   8  0.500  0.000  0.500-  19 1.97  19 1.97  14 2.79  15 2.79  15 2.79  16 2.79
   9  0.250  0.500  0.560-  19 1.97  20 1.97  16 2.79  16 2.79  15 2.79  15 2.79
  10  0.750  0.500  0.560-  20 1.97  19 1.97  15 2.79  15 2.79  16 2.79  16 2.79
  11  0.000  0.000  0.620-  20 1.97  20 1.97  16 2.79  16 2.79  15 2.79
  12  0.750  0.500  0.681-  20 1.97  16 2.79  16 2.79
  13  0.000  0.000  0.259-   5 2.79   2 2.79   1 2.79   1 2.79   4 2.79   4 2.79   2 2.79   3 2.79
                             3 2.79  18 3.42  17 3.42  18 3.42  17 3.42  17 3.42  17 3.42  14 3.95
  14  0.500  0.000  0.380-   3 2.79   3 2.79   8 2.79   2 2.79   5 2.79   7 2.79   4 2.79   7 2.79
                             4 2.79   5 2.79   6 2.79   6 2.79  17 3.42  19 3.42  18 3.42  17 3.42
  15  0.000  0.000  0.500-   6 2.79   6 2.79   5 2.79   8 2.79   7 2.79   7 2.79  10 2.79  10 2.79
                             8 2.79   9 2.79   9 2.79  11 2.79  18 3.42  19 3.42  18 3.42  19 3.42
  16  0.500  0.000  0.620-  11 2.79   9 2.79  12 2.79   9 2.79  12 2.79  11 2.79  10 2.79  10 2.79
                             8 2.79  20 3.42  20 3.42  20 3.42  20 3.42  19 3.42  19 3.42  15 3.95
  17  0.500  0.500  0.259-   1 1.97   3 1.97   2 1.97   2 1.97   4 1.97  14 3.42  13 3.42  14 3.42
                            13 3.42  13 3.42  13 3.42
  18  0.000  0.500  0.380-   4 1.97   3 1.97   5 1.97   5 1.97   6 1.97   7 1.97  13 3.42  15 3.42
                            14 3.42  13 3.42  15 3.42  14 3.42  14 3.42  14 3.42
  19  0.500  0.500  0.500-   7 1.97   6 1.97   9 1.97   8 1.97   8 1.97  10 1.97  14 3.42  15 3.42
                            14 3.42  15 3.42  15 3.42  15 3.42  16 3.42  16 3.42
  20  0.000  0.500  0.620-  12 1.97  11 1.97  11 1.97  10 1.97   9 1.97  16 3.42  16 3.42  16 3.42
                            16 3.42  15 3.42  15 3.42

  LATTYP: Found a simple orthorhombic cell.
 ALAT       =     3.9468463416
 B/A-ratio  =     1.4142135624
 C/A-ratio  =     5.8688292471

  Lattice vectors:

 A1 = (   0.0000000000,  -3.9468463416,   0.0000000000)
 A2 = (  -5.5816836249,   0.0000000000,   0.0000000000)
 A3 = (   0.0000000000,   0.0000000000, -23.1633672436)

Analysis of symmetry for initial positions (statically):
 Subroutine PRICEL returns:
 Original cell was already a primitive cell.

 Routine SETGRP: Setting up the symmetry group for a
 simple orthorhombic supercell.

 Subroutine GETGRP returns: Found  4 space group operations
 (whereof  2 operations were pure point group operations)
 out of a pool of  8 trial point group operations.

The static configuration has the point symmetry C_1h.
 The point group associated with its full space group is C_2v.

Analysis of symmetry for dynamics (positions and initial velocities):
 Subroutine PRICEL returns:
 Original cell was already a primitive cell.

 Routine SETGRP: Setting up the symmetry group for a
 simple orthorhombic supercell.

 Subroutine GETGRP returns: Found  4 space group operations
 (whereof  2 operations were pure point group operations)
 out of a pool of  8 trial point group operations.

The dynamic configuration has the point symmetry C_1h.
 The point group associated with its full space group is C_2v.

 Subroutine INISYM returns: Found  4 space group operations
 (whereof  2 operations are pure point group operations),
 and found     1 'primitive' translations

 KPOINTS: k-density: 4.0

Automatic generation of k-mesh.
Space group operators:
 irot       det(A)        alpha          n_x          n_y          n_z        tau_x        tau_y        tau_z
    1     1.000000     0.000000     1.000000     0.000000     0.000000     0.000000     0.000000     0.000000
    2    -1.000000   180.000000     0.000000     1.000000     0.000000     0.000000     0.000000     0.000000
    3    -1.000000   180.000000     0.000000     0.000000     1.000000    -0.500000     0.000000    -0.120485
    4     1.000000   180.000000     1.000000     0.000000     0.000000    -0.500000     0.000000    -0.120485

 Subroutine IBZKPT returns following result:

 Found     12 irreducible k-points:

 Following reciprocal coordinates:
            Coordinates               Weight
  0.000000  0.000000  0.000000      1.000000
  0.200000  0.000000  0.000000      2.000000
  0.400000  0.000000  0.000000      2.000000
  0.000000  0.142857  0.000000      2.000000
  0.200000  0.142857  0.000000      4.000000
  0.400000  0.142857  0.000000      4.000000
  0.000000  0.285714  0.000000      2.000000
  0.200000  0.285714  0.000000      4.000000
  0.400000  0.285714  0.000000      4.000000
  0.000000  0.428571  0.000000      2.000000
  0.200000  0.428571  0.000000      4.000000
  0.400000  0.428571  0.000000      4.000000

 Following cartesian coordinates:
            Coordinates               Weight
  0.000000  0.000000  0.000000      1.000000
  0.035831  0.000000  0.000000      2.000000
  0.071663  0.000000  0.000000      2.000000
  0.000000  0.036195  0.000000      2.000000
  0.035831  0.036195  0.000000      4.000000
  0.071663  0.036195  0.000000      4.000000
  0.000000  0.072391  0.000000      2.000000
  0.035831  0.072391  0.000000      4.000000
  0.071663  0.072391  0.000000      4.000000
  0.000000  0.108586  0.000000      2.000000
  0.035831  0.108586  0.000000      4.000000
  0.071663  0.108586  0.000000      4.000000

 SYSTEM =  unknown system
 POSCAR =   O Sr Ti

 Startparameter for this run:
   NWRITE =      2    write-flag & timer
   PREC   = normal    normal or accurate (medium, high low for compatibility)
   ISTART =      0    job   : 0-new  1-cont  2-samecut
   ICHARG =      2    charge: 1-file 2-atom 10-const
   ISPIN  =      1    spin polarized calculation?
   LNONCOLLINEAR =      F non collinear calculations
   LSORBIT =      F    spin-orbit coupling
   INIWAV =      1    electr: 0-lowe 1-rand  2-diag
   LASPH  =      F    aspherical Exc in radial PAW
   METAGGA=      F    non-selfconsistent MetaGGA calc.

 Electronic Relaxation 1
   ENCUT  =  500.0 eV  36.75 Ry    6.06 a.u.  10.18  7.20 42.23*2*pi/ulx,y,z
   ENINI  =  500.0     initial cutoff
   ENAUG  =  605.4 eV  augmentation charge cutoff
   NELM   =     60;   NELMIN=  4; NELMDL=  0     # of ELM steps
   EDIFF  = 0.1E-04   stopping-criterion for ELM
   LREAL  =      T    real-space projection
   NLSPLINE    = F    spline interpolate recip. space projectors
   LCOMPAT=      F    compatible to vasp.4.4
   GGA_COMPAT  = T    GGA compatible to vasp.4.4-vasp.4.6
   LMAXPAW     = -100 max onsite density
   LMAXMIX     =    2 max onsite mixed and CHGCAR
   VOSKOWN=      0    Vosko Wilk Nusair interpolation
   ROPT   =   -0.00050  -0.00050  -0.00050
 Ionic relaxation
   EDIFFG = -.5E-01   stopping-criterion for IOM
   NSW    =    200    number of steps for IOM
   NBLOCK =      1;   KBLOCK =    200    inner block; outer block
   IBRION =      1    ionic relax: 0-MD 1-quasi-New 2-CG
   NFREE  =      0    steps in history (QN), initial steepest desc. (CG)
   ISIF   =      2    stress and relaxation
   IWAVPR =     11    prediction:  0-non 1-charg 2-wave 3-comb
   ISYM   =      2    0-nonsym 1-usesym 2-fastsym
[...]
   -.407E+01 0.278E-07 0.680E+03   0.407E+01 -.225E-06 -.680E+03   -.106E-01 0.000E+00 0.101E+00   0.318E-04 0.147E-10 0.220E-02
   -.407E+01 0.278E-07 -.680E+03   0.407E+01 -.225E-06 0.680E+03   -.106E-01 0.000E+00 -.101E+00   0.318E-04 0.147E-10 -.220E-02
   0.712E+02 0.207E-07 -.200E+04   -.672E+02 -.168E-06 0.200E+04   -.251E+01 0.000E+00 0.113E+01   -.163E-02 0.108E-10 -.689E-02
   -.590E+02 -.989E-07 0.818E+03   0.532E+02 0.178E-06 -.818E+03   0.183E-01 0.000E+00 -.231E+01   0.735E-03 -.356E-11 0.305E-02
   0.168E+01 -.826E-07 0.273E+03   -.176E+01 0.188E-06 -.273E+03   0.114E+00 0.000E+00 -.641E-01   0.251E-05 -.441E-11 0.983E-03
   0.168E+01 -.826E-07 -.273E+03   -.176E+01 0.188E-06 0.273E+03   0.114E+00 0.000E+00 0.641E-01   0.251E-05 -.441E-11 -.983E-03
   -.590E+02 -.989E-07 -.818E+03   0.532E+02 0.178E-06 0.818E+03   0.183E-01 0.000E+00 0.231E+01   0.735E-03 -.356E-11 -.305E-02
   -.240E+02 0.781E-05 -.510E-04   -.711E-14 0.129E-14 0.682E-12   0.240E+02 0.000E+00 -.400E-14   0.167E-02 -.538E-12 -.184E-06

 POSITION                                       TOTAL-FORCE (eV/Angst)
      1.39542      1.97342      4.60458         1.235954      0.000000      2.813826
      2.79084      0.00000      6.00000         1.645852      0.000000      0.128579
      1.39542      1.97342      7.39542         0.386482      0.000000     -0.089597
      4.18626      1.97342      7.39542         0.722340      0.000000     -0.451397
      0.00000      0.00000      8.79084         0.035551      0.000000     -0.030388
      4.18626      1.97342     10.18626         0.121249      0.000000     -0.236436
      1.39542      1.97342     10.18626         0.121249      0.000000      0.236436
      2.79084      0.00000     11.58168         0.035551      0.000000      0.030388
      1.39542      1.97342     12.97710         0.722340      0.000000      0.451397
      4.18626      1.97342     12.97710         0.386482      0.000000      0.089597
      0.00000      0.00000     14.37253         1.645852      0.000000     -0.128579
      4.18626      1.97342     15.76795         1.235954      0.000000     -2.813826
      0.00000      0.00000      6.00000         1.530913      0.000000     -0.519502
      2.79084      0.00000      8.79084        -0.001531      0.000000     -0.054582
      0.00000      0.00000     11.58168        -0.001531      0.000000      0.054582
      2.79084      0.00000     14.37253         1.530913      0.000000      0.519502
      2.79084      1.97342      6.00000        -5.715518      0.000000     -1.807674
      0.00000      1.97342      8.79084         0.038707      0.000000      0.053049
      2.79084      1.97342     11.58168         0.038707      0.000000     -0.053049
      0.00000      1.97342     14.37253        -5.715518      0.000000      1.807674
    total drift:                                0.005860      0.000008     -0.000051

  FREE ENERGIE OF THE ION-ELECTRON SYSTEM (eV)
  free  energy   TOTEN  =      -153.50252357 eV

  energy  without entropy=     -153.50233338  energy(sigma->0) =     -153.50242848

 Quasi-Newton relaxation of ions (Broydens 2nd method)
  g(Force)  = 0.499E+01   g(Stress)= 0.000E+00

 Reset! Starting new Quasi-Newton update for ions

[...]

 d Force =-0.2146329E+01[-0.928E+01, 0.499E+01]  d Energy = 0.3860038E-02-0.215E+01
 d Force =-0.1702997E+03[-0.195E+03,-0.146E+03]  d Ewald  =-0.1686480E+03-0.165E+01

[...]

 retain information from N=  1 steps
 eigenvalues of (default step * inverse Hessian matrix)
  average eigenvalue of G=   0.3263
 eigenvalue spectrum of G is  0.3263

[...]

 d Force = 0.2934006E+01[-0.171E+01, 0.758E+01]  d Energy = 0.1615310E+01 0.132E+01
 d Force = 0.1470364E+03[ 0.133E+03, 0.161E+03]  d Ewald  = 0.1458484E+03 0.119E+01

[...]

 d Force = 0.4722475E+00[ 0.256E+00, 0.688E+00]  d Energy = 0.4769863E+00-0.474E-02
 d Force =-0.2102082E+02[-0.215E+02,-0.205E+02]  d Ewald  =-0.2102754E+02 0.672E-02

[...]

 d Force = 0.2061351E-02[ 0.183E-02, 0.230E-02]  d Energy = 0.2102419E-02-0.411E-04
 d Force = 0.3127325E+01[ 0.314E+01, 0.311E+01]  d Ewald  = 0.3127327E+01-0.237E-05

[...]

 real space projection operators:
  max/ min on nodes  :        925.66        913.80

[...]

 eigenvalue-minimisations  :  1824
 total energy-change (2. order) : 0.5328358E-03  (-0.1282440E+00)
 number of electron     128.0000009 magnetization
 augmentation part       13.7163121 magnetization

[...]

 Broyden mixing:
  rms(total) = 0.73524E-03    rms(broyden)= 0.73505E-03
  rms(prec ) = 0.75978E-03
  weight for this iteration     100.00

 eigenvalues of (default mixing * dielectric matrix)
  average eigenvalue GAMMA=   1.7695
  3.1019  3.1019  0.4402  0.6450  0.6450  0.5508  0.5508  0.5691  1.3701  1.3701
  0.8314  0.8314  0.7436  0.7436  0.6976  1.6373  1.6373  0.7586  0.8199  0.8199
  0.9391  0.9391  1.1169  1.1169  1.1416  1.1416  0.9484  0.9484  0.9939  1.0702
  1.0702  1.2380  1.2380  1.4225  1.4225  2.0208  2.0208  1.6483  1.6483  2.6668
  2.6668  1.5728  1.5728  2.3431  2.3431  2.8976  1.7755  1.7755  2.0146  2.0146
  2.7071  2.7071  2.7472  1.9425  2.0230  2.7068  2.3589  2.3589  2.6535  2.2251
  2.2251  2.2001  2.2001  2.2311  2.2311  2.5851  2.5851  2.4717  2.4717  2.5695
  2.5695  2.5184  2.5184  2.3827  2.3827  2.5122  2.4474  2.3337  2.3337

[...]

--------------------------------------- Iteration     18(   6)  ---------------------------------------

 eigenvalue-minimisations  :  1421
 total energy-change (2. order) :-0.3690284E-05  (-0.3449952E-05)
 number of electron     128.0000009 magnetization
 augmentation part       13.7148951 magnetization

 Free energy of the ion-electron system (eV)
  alpha Z        PSCENC =       346.23006630
  Ewald energy   TEWEN  =     27581.34738013
  -Hartree energ DENC   =    -36117.97503306
  -exchange      EXHF   =         0.00000000
  -V(xc)+E(xc)   XCENC  =       341.25492025
  PAW double counting   =      6186.97634224    -6016.51602849
  entropy T*S    EENTRO =        -0.00000000
  eigenvalues    EBANDS =     -1415.01335747
  atomic energy  EATOM  =      8937.26825017
  Solvation  Ediel_sol  =         0.00000000
  free energy    TOTEN  =      -156.42745992 eV

  energy without entropy =     -156.42745992  energy(sigma->0) =     -156.42745992

 average (electrostatic) potential at core
  the test charge radii are     0.7215  1.1929  1.2598
  (the norm of the test charge is              1.0000)
       1 -75.1951       2 -75.4500       3 -75.9945       4 -75.5786       5 -75.6538
       6 -75.6585       7 -75.6585       8 -75.6538       9 -75.5786      10 -75.9946
      11 -75.4501      12 -75.1953      13 -40.6089      14 -40.7722      15 -40.7723
      16 -40.6090      17 -31.1670      18 -31.4223      19 -31.4224      20 -31.1671

 E-fermi :  -1.1507     XC(G=0):  -5.9225     alpha+bet : -5.8991

[...]

 k-point    12 :       0.4000    0.4286    0.0000
  band No.  band energies     occupation
      1     -34.6798      2.00000
      2     -34.6734      2.00000
      3     -34.5335      2.00000
      4     -34.5334      2.00000
      5     -19.1973      2.00000
      6     -19.0425      2.00000
      7     -18.7529      2.00000
      8     -18.6934      2.00000
      9     -18.5799      2.00000
     10     -18.5431      2.00000
     11     -18.4249      2.00000
     12     -18.3773      2.00000
     13     -18.2027      2.00000
     14     -18.1950      2.00000
     15     -17.9370      2.00000
     16     -17.9261      2.00000
     17     -16.8405      2.00000
     18     -16.7765      2.00000
     19     -16.7329      2.00000
     20     -16.6952      2.00000
     21     -16.5085      2.00000
     22     -16.4769      2.00000
     23     -16.3927      2.00000
     24     -16.3276      2.00000
     25     -16.3094      2.00000
     26     -16.2811      2.00000
     27     -15.8473      2.00000
     28     -15.8457      2.00000
     29      -6.2617      2.00000
     30      -6.2347      2.00000
     31      -6.0893      2.00000
     32      -6.0649      2.00000
     33      -5.8343      2.00000
     34      -5.7981      2.00000
     35      -5.6258      2.00000
     36      -5.5556      2.00000
     37      -5.4649      2.00000
     38      -5.4409      2.00000
     39      -5.1383      2.00000
     40      -5.0970      2.00000
     41      -4.9404      2.00000
     42      -4.9370      2.00000
     43      -4.7545      2.00000
     44      -4.7053      2.00000
     45      -4.6074      2.00000
     46      -4.4751      2.00000
     47      -4.4017      2.00000
     48      -4.3970      2.00000
     49      -4.2067      2.00000
     50      -4.0833      2.00000
     51      -3.4245      2.00000
     52      -3.3722      2.00000
     53      -3.3128      2.00000
     54      -3.2326      2.00000
     55      -3.1558      2.00000
     56      -3.1496      2.00000
     57      -2.8869      2.00000
     58      -2.8143      2.00000
     59      -2.7541      2.00000
     60      -2.7196      2.00000
     61      -2.4877      2.00000
     62      -2.4112      2.00000
     63      -2.1437      2.00000
     64      -2.1311      2.00000
     65       1.0108      0.00000
     66       1.1349      0.00000
     67       1.3549      0.00000
     68       1.4233      0.00000
     69       1.4551      0.00000
     70       1.5441      0.00000
     71       1.5750      0.00000
     72       1.6445      0.00000
     73       1.7464      0.00000
     74       1.8681      0.00000
     75       2.0515      0.00000
     76       2.0715      0.00000

 soft charge-density along one line, spin component           1
         0         1         2         3         4         5         6         7         8         9
 total charge-density along one line

------------------------ aborting loop because EDIFF is reached ----------------------------------------

  FORCE on cell =-STRESS in cart. coord.  units (eV):
  Direction    XX          YY          ZZ          XY          YZ          ZX
  Alpha Z   346.23007   346.23007   346.23007
  Ewald   32462.99502 32652.96919-37534.63088    -0.00000     0.00000     0.00000
  Hartree 34753.41959 34877.16016-33512.74847    -0.00000    -0.00000     0.00001
  E(xc)    -578.01797  -576.76611  -579.47122     0.00000    -0.00000    -0.00001
  Local  -68846.99667-69164.53662 69420.55058     0.00000    -0.00000    -0.00001
  n-local  -485.80857  -482.89889  -481.90548     0.03794    -0.00001     0.02871
  augment   116.19907   115.48275   115.47330    -0.00000     0.00000     0.00001
  Kinetic  2235.38459  2227.64034  2226.11151     0.42479     0.00001    -0.00026
  Fock        0.00000     0.00000     0.00000     0.00000     0.00000     0.00000
  Total       3.40512    -4.71911    -0.39059     0.00000     0.00000     0.00000
  in kB      10.69118   -14.81677    -1.22635     0.00000     0.00000     0.00000

 VOLUME and BASIS-vectors are now :
  energy-cutoff  :      500.00
  volume of cell :      510.29
      direct lattice vectors                 reciprocal lattice vectors
     5.581683625  0.000000000  0.000000000     0.179157413  0.000000000  0.000000000
     0.000000000  3.946846342  0.000000000     0.000000000  0.253366844  0.000000000
     0.000000000  0.000000000 23.163367244     0.000000000  0.000000000  0.043171616

  length of vectors
     5.581683625  3.946846342 23.163367244     0.179157413  0.253366844  0.043171616

 FORCES acting on ions
    electron-ion (+dipol)            ewald-force                    non-local-force                 convergence-correction
   0.179E+02 0.994E-06 0.142E+04   -.275E+02 0.121E-06 -.143E+04   0.967E+01 0.000E+00 0.141E+02   -.680E-02 0.180E-10 0.101E-01
   -.177E+02 0.422E-07 0.124E+04   0.193E+02 -.208E-06 -.124E+04   -.159E+01 0.000E+00 0.272E+01   0.397E-03 -.257E-11 0.289E-02
   -.584E+01 0.987E-06 0.743E+03   0.402E+01 0.153E-06 -.735E+03   0.181E+01 0.000E+00 -.771E+01   0.408E-02 0.361E-10 0.300E-02
   0.342E+02 0.965E-06 0.885E+03   -.388E+02 0.162E-06 -.890E+03   0.462E+01 0.000E+00 0.570E+01   0.177E-02 0.374E-10 -.357E-02
   0.710E+01 0.485E-07 0.415E+03   -.599E+01 -.266E-06 -.415E+03   -.111E+01 0.000E+00 -.469E-02   0.696E-03 -.126E-10 0.102E-02
   0.803E+01 0.974E-06 0.415E+02   -.119E+02 0.161E-06 -.372E+02   0.388E+01 0.000E+00 -.430E+01   -.235E-02 0.340E-10 -.446E-02
   0.803E+01 0.974E-06 -.415E+02   -.119E+02 0.161E-06 0.372E+02   0.388E+01 0.000E+00 0.430E+01   -.234E-02 0.338E-10 0.423E-02
   0.710E+01 0.485E-07 -.415E+03   -.599E+01 -.266E-06 0.415E+03   -.111E+01 0.000E+00 0.469E-02   0.696E-03 -.126E-10 -.122E-02
   0.342E+02 0.965E-06 -.885E+03   -.388E+02 0.162E-06 0.890E+03   0.462E+01 0.000E+00 -.570E+01   0.177E-02 0.374E-10 0.345E-02
   -.584E+01 0.987E-06 -.743E+03   0.402E+01 0.153E-06 0.735E+03   0.181E+01 0.000E+00 0.771E+01   0.408E-02 0.359E-10 -.315E-02
   -.177E+02 0.422E-07 -.124E+04   0.193E+02 -.208E-06 0.124E+04   -.159E+01 0.000E+00 -.272E+01   0.398E-03 -.257E-11 -.295E-02
   0.179E+02 0.994E-06 -.142E+04   -.275E+02 0.121E-06 0.143E+04   0.967E+01 0.000E+00 -.141E+02   -.680E-02 0.176E-10 -.101E-01
   0.320E+02 0.268E-07 0.199E+04   -.325E+02 -.225E-06 -.199E+04   0.482E+00 0.000E+00 -.985E+00   -.367E-02 -.165E-10 0.410E-02
   -.228E+02 0.294E-07 0.672E+03   0.219E+02 -.240E-06 -.671E+03   0.898E+00 0.000E+00 -.476E+00   0.207E-03 -.195E-11 0.465E-02
   -.228E+02 0.294E-07 -.672E+03   0.219E+02 -.240E-06 0.671E+03   0.898E+00 0.000E+00 0.476E+00   0.208E-03 -.188E-11 -.498E-02
   0.320E+02 0.268E-07 -.199E+04   -.325E+02 -.225E-06 0.199E+04   0.482E+00 0.000E+00 0.985E+00   -.367E-02 -.164E-10 -.420E-02
   -.637E+02 -.703E-07 0.808E+03   0.630E+02 0.158E-06 -.806E+03   0.736E+00 0.000E+00 -.118E+01   0.166E-02 0.114E-11 0.439E-02
   -.820E+01 -.807E-07 0.278E+03   0.853E+01 0.184E-06 -.278E+03   -.350E+00 0.000E+00 -.580E-01   -.413E-03 0.375E-11 0.400E-03
   -.820E+01 -.807E-07 -.278E+03   0.853E+01 0.184E-06 0.278E+03   -.350E+00 0.000E+00 0.580E-01   -.413E-03 0.372E-11 -.528E-03
   -.637E+02 -.703E-07 -.808E+03   0.630E+02 0.158E-06 0.806E+03   0.736E+00 0.000E+00 0.118E+01   0.166E-02 0.109E-11 -.443E-02
   -.380E+02 0.783E-05 -.389E-03   -.142E-13 0.129E-14 -.341E-12   0.381E+02 0.000E+00 0.000E+00   -.885E-02 0.193E-09 -.136E-02

 POSITION                                       TOTAL-FORCE (eV/Angst)
      1.11083      1.97342      4.94440         0.033432      0.000000      0.012822
      2.98090      0.00000      5.83693         0.004066      0.000000      0.045816
      1.65237      1.97342      7.59000        -0.008710      0.000000      0.042839
      4.43454      1.97342      7.18937         0.011364      0.000000     -0.019832
      0.07604      0.00000      8.76853        -0.004257      0.000000     -0.002129
      4.11118      1.97342     10.02746        -0.013604      0.000000     -0.033375
      1.32034      1.97342     10.34506        -0.013604      0.000000      0.033375
      2.86688      0.00000     11.60399        -0.004257      0.000000      0.002129
      1.64370      1.97342     13.18315         0.011364      0.000000      0.019832
      4.44321      1.97342     12.78253        -0.008710      0.000000     -0.042839
      0.19006      0.00000     14.53559         0.004066      0.000000     -0.045816
      3.90167      1.97342     15.42812         0.033432      0.000000     -0.012822
     -0.04991      0.00000      5.96390         0.004787      0.000000     -0.048173
      2.75745      0.00000      8.84578        -0.009352      0.000000      0.013656
     -0.03340      0.00000     11.52675        -0.009352      0.000000     -0.013656
      2.74094      0.00000     14.40863         0.004787      0.000000      0.048173
      2.55735      1.97342      5.98840         0.005044      0.000000      0.021090
     -0.09486      1.97342      8.74005        -0.022771      0.000000     -0.003643
      2.69598      1.97342     11.63247        -0.022771      0.000000      0.003643
     -0.23349      1.97342     14.38412         0.005044      0.000000     -0.021090
    total drift:                                0.045832      0.000008     -0.001748

  FREE ENERGIE OF THE ION-ELECTRON SYSTEM (eV)
  free  energy   TOTEN  =      -156.42745992 eV

  energy  without entropy=     -156.42745992  energy(sigma->0) =     -156.42745992

 d Force = 0.2487061E-02[ 0.220E-02, 0.277E-02]  d Energy = 0.2302954E-02 0.184E-03
 d Force =-0.8867939E+00[-0.856E+00,-0.917E+00]  d Ewald  =-0.8867956E+00 0.169E-05

 Quasi-Newton relaxation of ions (Broydens 2nd method)
  g(Force)  = 0.104E-02   g(Stress)= 0.000E+00

 retain information from N=  5 steps
 eigenvalues of (default step * inverse Hessian matrix)
  average eigenvalue of G=   3.7469
 eigenvalue spectrum of G is  5.2551  5.2551  0.4091  1.3419  6.4735

 reached required accuracy - stopping structural energy minimisation