 vasp.5.4.4.18Apr17-6-g9f103f2a35 (build Jun 30 2017 11:15:00) complex

 executed on    STALLO_VASP_5.4.4 date 2019.11.01  10:56:37

 INCAR:
 POTCAR:   PAW_PBE Sr_sv 07Sep2000
 POTCAR:   PAW_PBE Ti 08Apr2002
 POTCAR:   PAW_PBE O 08Apr2002
 POTCAR:   PAW_PBE Sr_sv 07Sep2000

 POTCAR:   PAW_PBE Ti 08Apr2002

 POTCAR:   PAW_PBE O 08Apr2002

 Optimization of the real space projectors (new method)

 maximal supplied QI-value         = 15.12
 optimisation between [QCUT,QGAM] = [ 11.34, 22.83] = [ 36.00,145.93] Ry
 Optimized for a Real-space Cutoff    1.56 Angstroem

   l    n(q)    QCUT    max X(q) W(low)/X(q) W(high)/X(q)  e(spline)
   0     11    11.338     6.584    0.15E-04    0.24E-05    0.13E-07
   0     11    11.338    11.383    0.41E-04    0.15E-04    0.15E-06
   1     10    11.338     3.802    0.90E-05    0.33E-06    0.26E-07
   1     10    11.338    39.081    0.19E-03    0.53E-04    0.42E-06
   2     10    11.338     4.950    0.16E-04    0.40E-04    0.77E-07
   2     10    11.338    88.754    0.21E-03    0.41E-03    0.42E-06
 Optimization of the real space projectors (new method)

[...]

   l    n(q)    QCUT    max X(q) W(low)/X(q) W(high)/X(q)  e(spline)
   2     10    11.404     5.474    0.89E-05    0.24E-04    0.66E-07
   2     10    11.404    20.898    0.40E-04    0.22E-03    0.47E-06
   0     11    11.404    23.292    0.14E-04    0.42E-06    0.65E-07
   0     11    11.404    27.738    0.59E-04    0.19E-04    0.40E-06
   1     11    11.404     9.492    0.14E-04    0.30E-04    0.10E-06
 Optimization of the real space projectors (new method)

 maximal supplied QI-value         = 24.76
 optimisation between [QCUT,QGAM] = [ 11.39, 22.77] = [ 36.31,145.25] Ry
 Optimized for a Real-space Cutoff    1.03 Angstroem

   l    n(q)    QCUT    max X(q) W(low)/X(q) W(high)/X(q)  e(spline)
   0      7    11.387     4.192    0.55E-04    0.17E-03    0.22E-07
   0      7    11.387     8.473    0.18E-03    0.93E-03    0.17E-06
   1      6    11.387     2.474    0.16E-03    0.14E-03    0.20E-07
   1      6    11.387     3.912    0.19E-03    0.47E-03    0.17E-06
 PAW_PBE Sr_sv 07Sep2000                :
 PAW_PBE Ti 08Apr2002                   :
 PAW_PBE O 08Apr2002                    :

 POSCAR: ICSD_CollCode262269
  positions in direct lattice
 exchange correlation table for  LEXCH =        8
   RHO(1)=    0.500       N(1)  =     2000
   RHO(2)=  100.500       N(2)  =     4000

 ion  position               nearest neighbor table
   1  0.000  0.000  0.000-   3 2.76   4 2.76   5 2.76   4 2.76   5 2.76   3 2.76   5 2.76   5 2.76
                             3 2.76   4 2.76   4 2.76   3 2.76   2 3.38   2 3.38   2 3.38   2 3.38
   2  0.500  0.500  0.500-   3 1.95   4 1.95   5 1.95   3 1.95   4 1.95   5 1.95   1 3.38   1 3.38
                             1 3.38   1 3.38   1 3.38   1 3.38   1 3.38   1 3.38
   3  0.500  0.500  0.000-   2 1.95   2 1.95   1 2.76   1 2.76   1 2.76   1 2.76
   4  0.500  0.000  0.500-   2 1.95   2 1.95   1 2.76   1 2.76   1 2.76   1 2.76
   5  0.000  0.500  0.500-   2 1.95   2 1.95   1 2.76   1 2.76   1 2.76   1 2.76

  LATTYP: Found a simple cubic cell.
 ALAT       =     3.9052680000

  Lattice vectors:

 A1 = (   3.9052680000,   0.0000000000,   0.0000000000)
 A2 = (   0.0000000000,   3.9052680000,   0.0000000000)
 A3 = (   0.0000000000,   0.0000000000,   3.9052680000)

Analysis of symmetry for initial positions (statically):
 Subroutine PRICEL returns:
 Original cell was already a primitive cell.

 Routine SETGRP: Setting up the symmetry group for a
 simple cubic supercell.

 Subroutine GETGRP returns: Found 48 space group operations
 (whereof 48 operations were pure point group operations)
 out of a pool of 48 trial point group operations.

The static configuration has the point symmetry O_h .

Analysis of symmetry for dynamics (positions and initial velocities):
 Subroutine PRICEL returns:
 Original cell was already a primitive cell.

 Routine SETGRP: Setting up the symmetry group for a
 simple cubic supercell.

 Subroutine GETGRP returns: Found 48 space group operations
 (whereof 48 operations were pure point group operations)
 out of a pool of 48 trial point group operations.

The dynamic configuration has the point symmetry O_h .

 Subroutine INISYM returns: Found 48 space group operations
 (whereof 48 operations are pure point group operations),
 and found     1 'primitive' translations

 KPOINTS: k-density: 4.0

Automatic generation of k-mesh.
Space group operators:
 irot       det(A)        alpha          n_x          n_y          n_z        tau_x        tau_y        tau_z
    1     1.000000     0.000000     1.000000     0.000000     0.000000     0.000000     0.000000     0.000000
    2    -1.000000     0.000000     1.000000     0.000000     0.000000     0.000000     0.000000     0.000000
    3     1.000000   120.000000    -0.577350    -0.577350    -0.577350     0.000000     0.000000     0.000000
    4    -1.000000   120.000000    -0.577350    -0.577350    -0.577350     0.000000     0.000000     0.000000
    5     1.000000   120.000000     0.577350     0.577350     0.577350     0.000000     0.000000     0.000000
    6    -1.000000   120.000000     0.577350     0.577350     0.577350     0.000000     0.000000     0.000000
    7     1.000000    90.000000     0.000000     0.000000    -1.000000     0.000000     0.000000     0.000000
    8    -1.000000    90.000000     0.000000     0.000000    -1.000000     0.000000     0.000000     0.000000
    9     1.000000   180.000000     0.000000     0.707107     0.707107     0.000000     0.000000     0.000000
   10    -1.000000   180.000000     0.000000     0.707107     0.707107     0.000000     0.000000     0.000000
   11     1.000000    90.000000     0.000000     1.000000     0.000000     0.000000     0.000000     0.000000
   12    -1.000000    90.000000     0.000000     1.000000     0.000000     0.000000     0.000000     0.000000
   13     1.000000   180.000000     0.000000     0.000000     1.000000     0.000000     0.000000     0.000000
   14    -1.000000   180.000000     0.000000     0.000000     1.000000     0.000000     0.000000     0.000000
   15     1.000000   120.000000    -0.577350     0.577350     0.577350     0.000000     0.000000     0.000000
   16    -1.000000   120.000000    -0.577350     0.577350     0.577350     0.000000     0.000000     0.000000
   17     1.000000   120.000000    -0.577350     0.577350    -0.577350     0.000000     0.000000     0.000000
   18    -1.000000   120.000000    -0.577350     0.577350    -0.577350     0.000000     0.000000     0.000000
   19     1.000000    90.000000     0.000000     0.000000     1.000000     0.000000     0.000000     0.000000
   20    -1.000000    90.000000     0.000000     0.000000     1.000000     0.000000     0.000000     0.000000
   21     1.000000    90.000000    -1.000000     0.000000     0.000000     0.000000     0.000000     0.000000
   22    -1.000000    90.000000    -1.000000     0.000000     0.000000     0.000000     0.000000     0.000000
   23     1.000000   180.000000     0.707107     0.000000     0.707107     0.000000     0.000000     0.000000
   24    -1.000000   180.000000     0.707107     0.000000     0.707107     0.000000     0.000000     0.000000
   25     1.000000   120.000000     0.577350    -0.577350     0.577350     0.000000     0.000000     0.000000
   26    -1.000000   120.000000     0.577350    -0.577350     0.577350     0.000000     0.000000     0.000000
   27     1.000000   120.000000    -0.577350    -0.577350     0.577350     0.000000     0.000000     0.000000
   28    -1.000000   120.000000    -0.577350    -0.577350     0.577350     0.000000     0.000000     0.000000
   29     1.000000   180.000000     1.000000     0.000000     0.000000     0.000000     0.000000     0.000000
   30    -1.000000   180.000000     1.000000     0.000000     0.000000     0.000000     0.000000     0.000000
   31     1.000000    90.000000     0.000000    -1.000000     0.000000     0.000000     0.000000     0.000000
   32    -1.000000    90.000000     0.000000    -1.000000     0.000000     0.000000     0.000000     0.000000
   33     1.000000   180.000000     0.707107     0.707107     0.000000     0.000000     0.000000     0.000000
   34    -1.000000   180.000000     0.707107     0.707107     0.000000     0.000000     0.000000     0.000000
   35     1.000000    90.000000     1.000000     0.000000     0.000000     0.000000     0.000000     0.000000
   36    -1.000000    90.000000     1.000000     0.000000     0.000000     0.000000     0.000000     0.000000
   37     1.000000   120.000000     0.577350    -0.577350    -0.577350     0.000000     0.000000     0.000000
   38    -1.000000   120.000000     0.577350    -0.577350    -0.577350     0.000000     0.000000     0.000000
   39     1.000000   180.000000     0.000000     1.000000     0.000000     0.000000     0.000000     0.000000
   40    -1.000000   180.000000     0.000000     1.000000     0.000000     0.000000     0.000000     0.000000
   41     1.000000   120.000000     0.577350     0.577350    -0.577350     0.000000     0.000000     0.000000
   42    -1.000000   120.000000     0.577350     0.577350    -0.577350     0.000000     0.000000     0.000000
   43     1.000000   180.000000     0.000000    -0.707107     0.707107     0.000000     0.000000     0.000000
   44    -1.000000   180.000000     0.000000    -0.707107     0.707107     0.000000     0.000000     0.000000
   45     1.000000   180.000000     0.707107    -0.707107     0.000000     0.000000     0.000000     0.000000
   46    -1.000000   180.000000     0.707107    -0.707107     0.000000     0.000000     0.000000     0.000000
   47     1.000000   180.000000     0.707107     0.000000    -0.707107     0.000000     0.000000     0.000000
   48    -1.000000   180.000000     0.707107     0.000000    -0.707107     0.000000     0.000000     0.000000

 Subroutine IBZKPT returns following result:

 Found     20 irreducible k-points:

 Following reciprocal coordinates:
            Coordinates               Weight
  0.000000  0.000000  0.000000      1.000000
  0.142857  0.000000  0.000000      6.000000
  0.285714  0.000000  0.000000      6.000000
  0.428571  0.000000  0.000000      6.000000
  0.142857  0.142857  0.000000     12.000000
  0.285714  0.142857  0.000000     24.000000
  0.428571  0.142857  0.000000     24.000000
  0.285714  0.285714  0.000000     12.000000
  0.428571  0.285714  0.000000     24.000000
  0.428571  0.428571  0.000000     12.000000
  0.142857  0.142857  0.142857      8.000000
  0.285714  0.142857  0.142857     24.000000
  0.428571  0.142857  0.142857     24.000000
  0.285714  0.285714  0.142857     24.000000
  0.428571  0.285714  0.142857     48.000000
  0.428571  0.428571  0.142857     24.000000
  0.285714  0.285714  0.285714      8.000000
  0.428571  0.285714  0.285714     24.000000
  0.428571  0.428571  0.285714     24.000000
  0.428571  0.428571  0.428571      8.000000

 Following cartesian coordinates:
            Coordinates               Weight
  0.000000  0.000000  0.000000      1.000000
  0.036581  0.000000  0.000000      6.000000
  0.073161  0.000000  0.000000      6.000000
  0.109742  0.000000  0.000000      6.000000
[...]
   0.42857143  0.42857143  0.28571429       0.070
   0.42857143  0.42857143  0.42857143       0.023

 position of ions in fractional coordinates (direct lattice)
   0.00000000  0.00000000  0.00000000
   0.50000000  0.50000000  0.50000000
   0.50000000  0.50000000  0.00000000
   0.50000000  0.00000000  0.50000000
   0.00000000  0.50000000  0.50000000

 position of ions in cartesian coordinates  (Angst):
   0.00000000  0.00000000  0.00000000
   1.95263400  1.95263400  1.95263400
   1.95263400  1.95263400  0.00000000
   1.95263400  0.00000000  1.95263400
   0.00000000  1.95263400  1.95263400

 k-point  1 :   0.0000 0.0000 0.0000  plane waves:    1503
 k-point  2 :   0.1429 0.0000 0.0000  plane waves:    1478
 k-point  3 :   0.2857 0.0000 0.0000  plane waves:    1510
 k-point  4 :   0.4286 0.0000 0.0000  plane waves:    1502
 k-point  5 :   0.1429 0.1429 0.0000  plane waves:    1500
 k-point  6 :   0.2857 0.1429 0.0000  plane waves:    1511
 k-point  7 :   0.4286 0.1429 0.0000  plane waves:    1517
 k-point  8 :   0.2857 0.2857 0.0000  plane waves:    1510
 k-point  9 :   0.4286 0.2857 0.0000  plane waves:    1524
 k-point 10 :   0.4286 0.4286 0.0000  plane waves:    1520
 k-point 11 :   0.1429 0.1429 0.1429  plane waves:    1502
 k-point 12 :   0.2857 0.1429 0.1429  plane waves:    1514
 k-point 13 :   0.4286 0.1429 0.1429  plane waves:    1514
 k-point 14 :   0.2857 0.2857 0.1429  plane waves:    1516
 k-point 15 :   0.4286 0.2857 0.1429  plane waves:    1513
 k-point 16 :   0.4286 0.4286 0.1429  plane waves:    1521
 k-point 17 :   0.2857 0.2857 0.2857  plane waves:    1508
 k-point 18 :   0.4286 0.2857 0.2857  plane waves:    1521
 k-point 19 :   0.4286 0.4286 0.2857  plane waves:    1501
 k-point 20 :   0.4286 0.4286 0.4286  plane waves:    1520

 maximum and minimum number of plane-waves per node :       764      733

 maximum number of plane-waves:      1524
 maximum index in each direction:
   IXMAX=    7   IYMAX=    7   IZMAX=    7
   IXMIN=   -7   IYMIN=   -7   IZMIN=   -7

 real space projection operators:
  max/ min on nodes  :        928.43        918.66

 parallel 3D FFT for wavefunctions:
    minimum data exchange during FFTs selected (reduces bandwidth)
 parallel 3D FFT for charge:
    minimum data exchange during FFTs selected (reduces bandwidth)

 Broyden mixing: mesh for mixing (old mesh)
   NGX = 15   NGY = 15   NGZ = 15
  (NGX  = 56   NGY  = 56   NGZ  = 56)
  gives a total of   3375 points

 initial charge density was supplied:
 charge density of overlapping atoms calculated
 number of electron      32.0000000 magnetization
 keeping initial charge density in first step

 Maximum index for non-local projection operator         3143
 Maximum index for augmentation-charges        49359 (set IRDMAX)

 First call to EWALD:  gamma=   0.454
 Maximum number of real-space cells 3x 3x 3
 Maximum number of reciprocal cells 3x 3x 3

--------------------------------------- Iteration      1(   1)  ---------------------------------------

 eigenvalue-minimisations  :   800
 total energy-change (2. order) : 0.3103238E+03  (-0.1520595E+04)
 number of electron      32.0000000 magnetization
 augmentation part       32.0000000 magnetization

 Free energy of the ion-electron system (eV)
  alpha Z        PSCENC =       185.39985751
  Ewald energy   TEWEN  =     -1934.07799583
  -Hartree energ DENC   =      -403.14003404
  -exchange      EXHF   =         0.00000000
  -V(xc)+E(xc)   XCENC  =        82.31787849
  PAW double counting   =      1333.61297253    -1284.78446064
  entropy T*S    EENTRO =        -0.03339522
  eigenvalues    EBANDS =        96.71191040
  atomic energy  EATOM  =      2234.31706254
  Solvation  Ediel_sol  =         0.00000000
  free energy    TOTEN  =       310.32379573 eV

  energy without entropy =      310.35719095  energy(sigma->0) =      310.34049334

[...]

 eigenvalue-minimisations  :  1112
 total energy-change (2. order) :-0.3320127E+03  (-0.3211477E+03)
 number of electron      32.0000000 magnetization
 augmentation part       32.0000000 magnetization

[...]

 Broyden mixing:
  rms(total) = 0.18264E+01    rms(broyden)= 0.18262E+01
  rms(prec ) = 0.47650E+01
  weight for this iteration     100.00

[...]

 eigenvalues of (default mixing * dielectric matrix)
  average eigenvalue GAMMA=   0.7962
  0.7962

[...]

 Broyden mixing:
  rms(total) = 0.69246E-03    rms(broyden)= 0.69246E-03
  rms(prec ) = 0.14546E-02
  weight for this iteration     100.00

[...]

 Free energy of the ion-electron system (eV)
  alpha Z        PSCENC =       185.39985751
  Ewald energy   TEWEN  =     -1934.07799583
  -Hartree energ DENC   =      -441.36579288
  -exchange      EXHF   =         0.00000000
  -V(xc)+E(xc)   XCENC  =        86.19559370
  PAW double counting   =      1562.17700548    -1519.84338183
  entropy T*S    EENTRO =        -0.00000000
  eigenvalues    EBANDS =      -212.49648263
  atomic energy  EATOM  =      2234.31706254
  Solvation  Ediel_sol  =         0.00000000
  free energy    TOTEN  =       -39.69413394 eV

  energy without entropy =      -39.69413394  energy(sigma->0) =      -39.69413394

 average (electrostatic) potential at core
  the test charge radii are     1.1929  1.2598  0.7215
  (the norm of the test charge is              1.0000)
       1 -36.1347       2 -26.7944       3 -71.0535       4 -71.0535       5 -71.0535

 E-fermi :   3.4126     XC(G=0): -11.1505     alpha+bet :-12.6354

 k-point     1 :       0.0000    0.0000    0.0000
  band No.  band energies     occupation
      1     -30.0813      2.00000
      2     -14.8167      2.00000
      3     -13.8107      2.00000
      4     -13.8107      2.00000
      5     -12.1454      2.00000
      6     -12.1454      2.00000
      7     -12.1454      2.00000
      8      -0.2096      2.00000
      9      -0.2096      2.00000
     10      -0.2096      2.00000
     11       1.4785      2.00000
     12       1.4785      2.00000
     13       1.4785      2.00000
     14       2.3188      2.00000
     15       2.3188      2.00000
     16       2.3188      2.00000
     17       4.3445      0.00000
     18       4.3445      0.00000
     19       4.3449      0.00000
     20       8.0264      0.00000

[...]

 soft charge-density along one line, spin component           1
         0         1         2         3         4         5         6         7         8         9
 total charge-density along one line

------------------------ aborting loop because EDIFF is reached ----------------------------------------

  FORCE on cell =-STRESS in cart. coord.  units (eV):
  Direction    XX          YY          ZZ          XY          YZ          ZX
  Alpha Z   185.39986   185.39986   185.39986
  Ewald    -644.69310  -644.69310  -644.69310     0.00000    -0.00000    -0.00000
  Hartree   147.09355   147.09355   147.09355    -0.00000    -0.00000    -0.00000
  E(xc)    -145.39281  -145.39281  -145.39281     0.00000    -0.00000     0.00000
  Local      -9.63752    -9.63752    -9.63752     0.00000    -0.00000    -0.00000
  n-local  -123.41847  -119.23819  -114.80574    -0.47316    -0.40915    -0.30057
  augment    28.91804    28.91804    28.91804     0.00000     0.00000     0.00000
  Kinetic   550.16709   562.33284   566.73978    -2.56469    -2.75971    -1.78200
  Fock        0.00000     0.00000     0.00000     0.00000     0.00000     0.00000
  Total       2.28045     2.28045     2.28045    -0.00000     0.00000    -0.00000
  in kB      61.34483    61.34483    61.34483    -0.00000     0.00000    -0.00000

 VOLUME and BASIS-vectors are now :
  energy-cutoff  :      500.00
  volume of cell :       59.56
      direct lattice vectors                 reciprocal lattice vectors
     3.905268000  0.000000000  0.000000000     0.256064373  0.000000000  0.000000000
     0.000000000  3.905268000  0.000000000     0.000000000  0.256064373  0.000000000
     0.000000000  0.000000000  3.905268000     0.000000000  0.000000000  0.256064373

[...]

 FORCES acting on ions
    electron-ion (+dipol)            ewald-force                    non-local-force                 convergence-correction
   -.384E-14 -.434E-14 -.428E-14   -.987E-14 0.226E-14 -.502E-14   0.000E+00 0.000E+00 0.000E+00   0.407E-14 -.154E-15 0.927E-14
   0.546E-14 -.322E-12 0.264E-12   0.387E-14 0.424E-14 -.122E-14   0.000E+00 0.000E+00 0.000E+00   -.545E-15 -.175E-14 -.612E-14
   0.159E-12 0.173E-11 0.110E-11   0.648E-14 0.208E-14 -.144E-14   0.000E+00 0.000E+00 0.000E+00   -.105E-14 0.814E-16 0.748E-14
   0.158E-12 -.361E-14 0.367E-11   0.284E-14 -.378E-14 0.434E-14   0.000E+00 0.000E+00 0.000E+00   -.391E-14 0.767E-14 -.318E-13
   -.574E-14 0.160E-12 0.156E-12   -.327E-14 -.425E-14 0.433E-14   0.000E+00 0.000E+00 0.000E+00   0.137E-14 -.263E-15 -.376E-13
   0.312E-12 0.156E-11 0.519E-11   0.432E-16 0.547E-15 0.100E-14   0.000E+00 0.000E+00 0.000E+00   -.782E-16 0.559E-14 -.588E-13

 POSITION                                       TOTAL-FORCE (eV/Angst)
      0.00000      0.00000      0.00000         0.000000      0.000000      0.000000
      1.95263      1.95263      1.95263         0.000000      0.000000      0.000000
      1.95263      1.95263      0.00000         0.000000      0.000000      0.000000
      1.95263      0.00000      1.95263         0.000000      0.000000      0.000000
      0.00000      1.95263      1.95263         0.000000      0.000000      0.000000
    total drift:                                0.000000      0.000000      0.000000

  FREE ENERGIE OF THE ION-ELECTRON SYSTEM (eV)
  free  energy   TOTEN  =       -39.69413394 eV

  energy  without entropy=      -39.69413394  energy(sigma->0) =      -39.69413394

 Quasi-Newton relaxation of ions (Broydens 2nd method)
  g(Force)  = 0.000E+00   g(Stress)= 0.151E+00

 Reset! Starting new Quasi-Newton update for ions

[...]

  free energy =  -0.405455168328E+02  energy without entropy=  -0.405455168328E+02

[...]

 d Force = 0.0000000E+00[ 0.000E+00, 0.000E+00]  d Energy = 0.8977381E-03-0.898E-03
 d Force = 0.0000000E+00[ 0.000E+00, 0.000E+00]  d Ewald  =-0.4163925E+02 0.416E+02

[...]

 retain information from N=  1 steps
 eigenvalues of (default step * inverse Hessian matrix)
  average eigenvalue of G=   0.5014
 eigenvalue spectrum of G is  0.5014

[...]

 d Force = 0.0000000E+00[ 0.000E+00, 0.000E+00]  d Energy = 0.3656727E-01-0.366E-01
 d Force = 0.0000000E+00[ 0.000E+00, 0.000E+00]  d Ewald  = 0.2053654E+02-0.205E+02

[...]

 d Force = 0.0000000E+00[ 0.000E+00, 0.000E+00]  d Energy = 0.4383466E-04-0.438E-04
 d Force = 0.0000000E+00[ 0.000E+00, 0.000E+00]  d Ewald  = 0.1082807E+01-0.108E+01

[...]

 real space projection operators:
  max/ min on nodes  :        893.37        883.12

[...]

 eigenvalue-minimisations  :   796
 total energy-change (2. order) : 0.7745202E-04  (-0.3223351E-04)
 number of electron      32.0000000 magnetization
 augmentation part        3.4035173 magnetization

[...]

 eigenvalues of (default mixing * dielectric matrix)
  average eigenvalue GAMMA=   1.5007
  5.0193  2.9928  2.9928  2.7432  2.5417  2.5417  2.3992  1.7441  1.7441  1.7291
  1.7291  0.7194  0.7194  0.5713  0.5713  1.2877  1.2877  1.2001  1.2001  1.0922
  1.0922  0.8151  0.8151  0.9930  0.9930  0.9989  0.9989  0.9929  0.9985  0.9985
  1.0013  1.0000  0.9996

[...]

--------------------------------------- Iteration      5(   4)  ---------------------------------------

 eigenvalue-minimisations  :   332
 total energy-change (2. order) :-0.5356992E-06  (-0.4972484E-06)
 number of electron      32.0000000 magnetization
 augmentation part        3.4036587 magnetization

  free energy =  -0.397316498254E+02  energy without entropy=  -0.397316498253E+02

 average (electrostatic) potential at core
  the test charge radii are     1.1929  1.2598  0.7215
  (the norm of the test charge is              1.0000)
       1 -36.4707       2 -27.1513       3 -71.2639       4 -71.2639       5 -71.2639

 E-fermi :   3.2340     XC(G=0): -10.9867     alpha+bet :-12.2403

[...]

 k-point    20 :       0.4286    0.4286    0.4286
  band No.  band energies     occupation
      1     -30.3458      2.00000
      2     -13.9249      2.00000
      3     -13.7873      2.00000
      4     -13.7873      2.00000
      5     -12.6280      2.00000
      6     -12.6280      2.00000
      7     -12.5225      2.00000
      8      -2.0307      2.00000
      9      -1.5820      2.00000
     10      -1.5820      2.00000
     11      -1.2898      2.00000
     12      -1.1888      2.00000
     13      -1.1888      2.00000
     14       2.2609      2.00000
     15       2.2609      2.00000
     16       2.3451      2.00000
     17       6.3773      0.00000
     18       6.3915      0.00000
     19       6.3915      0.00000
     20       9.4086      0.00000

 soft charge-density along one line, spin component           1
         0         1         2         3         4         5         6         7         8         9
 total charge-density along one line

------------------------ aborting loop because EDIFF is reached ----------------------------------------

  FORCE on cell =-STRESS in cart. coord.  units (eV):
  Direction    XX          YY          ZZ          XY          YZ          ZX
  Alpha Z   179.60204   179.60204   179.60204
  Ewald    -637.90153  -637.90153  -637.90153     0.00000     0.00000     0.00000
  Hartree   149.85113   149.85113   149.85113    -0.00000    -0.00000    -0.00000
  E(xc)    -144.86519  -144.86519  -144.86519     0.00000     0.00000     0.00000
  Local     -13.98433   -13.98433   -13.98433    -0.00000     0.00000     0.00000
  n-local  -123.44790  -119.52532  -115.33041    -0.43848    -0.37457    -0.27697
  augment    28.93943    28.93943    28.93943     0.00000     0.00000     0.00000
  Kinetic   548.53485   560.27432   564.55162    -2.48154    -2.65826    -1.72149
  Fock        0.00000     0.00000     0.00000     0.00000     0.00000     0.00000
  Total      -0.00606    -0.00606    -0.00606    -0.00000    -0.00000    -0.00000
  in kB      -0.15790    -0.15790    -0.15790    -0.00000    -0.00000    -0.00000

 VOLUME and BASIS-vectors are now :
  energy-cutoff  :      500.00
  volume of cell :       61.48
      direct lattice vectors                 reciprocal lattice vectors
     3.946846342  0.000000000 -0.000000000     0.253366844  0.000000000 -0.000000000
    -0.000000000  3.946846342  0.000000000    -0.000000000  0.253366844  0.000000000
     0.000000000 -0.000000000  3.946846342     0.000000000 -0.000000000  0.253366844

  length of vectors
     3.946846342  3.946846342  3.946846342     0.253366844  0.253366844  0.253366844

 FORCES acting on ions
    electron-ion (+dipol)            ewald-force                    non-local-force                 convergence-correction
   -.334E-14 -.348E-14 -.392E-14   -.612E-14 -.323E-14 -.321E-14   0.209E-24 -.483E-25 0.000E+00   -.273E-13 -.311E-14 0.207E-13
   0.589E-14 -.327E-12 0.268E-12   0.477E-14 0.490E-14 0.421E-14   0.736E-25 -.243E-25 0.000E+00   0.900E-14 0.994E-15 -.119E-13
   0.157E-12 0.173E-11 0.110E-11   0.565E-14 0.273E-14 -.453E-14   0.423E-24 -.520E-25 0.000E+00   0.256E-13 0.215E-14 0.184E-13
   0.158E-12 -.318E-14 0.366E-11   0.765E-14 -.446E-14 0.241E-14   0.495E-24 -.181E-24 0.000E+00   0.312E-13 -.371E-14 -.437E-13
   -.634E-14 0.162E-12 0.156E-12   -.117E-13 -.147E-15 0.245E-14   -.159E-24 0.745E-25 0.000E+00   -.199E-13 0.518E-14 -.433E-13
   0.312E-12 0.156E-11 0.518E-11   0.257E-15 -.198E-15 0.132E-14   0.104E-23 -.231E-24 0.000E+00   0.186E-13 0.149E-14 -.598E-13

 POSITION                                       TOTAL-FORCE (eV/Angst)
     -0.00000      0.00000      0.00000         0.000000      0.000000      0.000000
      1.97342      1.97342      1.97342         0.000000      0.000000      0.000000
      1.97342      1.97342     -0.00000         0.000000      0.000000      0.000000
      1.97342      0.00000      1.97342         0.000000     -0.000000      0.000000
     -0.00000      1.97342      1.97342        -0.000000     -0.000000      0.000000
    total drift:                                0.000000      0.000000      0.000000

  FREE ENERGIE OF THE ION-ELECTRON SYSTEM (eV)
  free  energy   TOTEN  =       -39.73164983 eV

  energy  without entropy=      -39.73164983  energy(sigma->0) =      -39.73164983

 d Force = 0.0000000E+00[ 0.000E+00, 0.000E+00]  d Energy = 0.7048581E-05-0.705E-05
 d Force = 0.0000000E+00[ 0.000E+00, 0.000E+00]  d Ewald  =-0.3547796E+00 0.355E+00

 Quasi-Newton relaxation of ions (Broydens 2nd method)
  g(Force)  = 0.278E-63   g(Stress)= 0.106E-05

 retain information from N=  1 steps
 eigenvalues of (default step * inverse Hessian matrix)
  average eigenvalue of G=   0.3190
 eigenvalue spectrum of G is  0.3190

 reached required accuracy - stopping structural energy minimisation
 writing wavefunctions