 vasp.5.4.4.18Apr17-6-g9f103f2a35 (build Jun 30 2017 11:15:00) complex

 executed on    STALLO_VASP_5.4.4 date 2019.11.25  09:10:12

 INCAR:
 POTCAR:   PAW_PBE O 08Apr2002
 POTCAR:   PAW_PBE Sr_sv 07Sep2000
 POTCAR:   PAW_PBE Ti 08Apr2002
 POTCAR:   PAW_PBE O 08Apr2002
   VRHFIN =O: s2p4

   TITEL  = PAW_PBE O 08Apr2002
   POMASS =   16.000; ZVAL   =    6.000    mass and valenz
   ENMAX  =  400.000; ENMIN  =  300.000 eV
   QCUT   =   -5.520; QGAM   =   11.041    optimization parameters

   Description
     l     E      TYP  RCUT    TYP  RCUT
     0   .000     23  1.200
     0  -.700     23  1.200
     1   .000     23  1.520
     1   .600     23  1.520
     2   .000      7  1.500

 POTCAR:   PAW_PBE Sr_sv 07Sep2000
   VRHFIN =Sr: 4s4p5s

   TITEL  = PAW_PBE Sr_sv 07Sep2000
   POMASS =   87.620; ZVAL   =   10.000    mass and valenz
   ENMAX  =  229.282; ENMIN  =  171.961 eV
   QCUT   =   -4.105; QGAM   =    8.210    optimization parameters

[...]

 POTCAR:   PAW_PBE Ti 08Apr2002
   VRHFIN =Ti: d3 s1

   TITEL  = PAW_PBE Ti 08Apr2002
   POMASS =   47.880; ZVAL   =    4.000    mass and valenz
   ENMAX  =  178.330; ENMIN  =  133.747 eV
   QCUT   =   -3.620; QGAM   =    7.241    optimization parameters

   Description
     l     E      TYP  RCUT    TYP  RCUT
     2   .000     23  2.800
     2   .000     23  2.800
     0   .000     23  2.800
     0  1.500     23  2.800
     1  -.400     23  2.800
     3   .000      7   .000

 Optimization of the real space projectors (new method)

 maximal supplied QI-value         = 24.76
 optimisation between [QCUT,QGAM] = [ 11.39, 22.77] = [ 36.31,145.25] Ry
 Optimized for a Real-space Cutoff    1.00 Angstroem

   l    n(q)    QCUT    max X(q) W(low)/X(q) W(high)/X(q)  e(spline)
   0      7    11.387     4.192    0.89E-04    0.26E-03    0.19E-07
   0      7    11.387     8.473    0.42E-03    0.14E-02    0.17E-06
   1      6    11.387     2.474    0.11E-03    0.26E-03    0.18E-07
   1      6    11.387     3.912    0.39E-03    0.87E-03    0.15E-06
 Optimization of the real space projectors (new method)

[...]

   l    n(q)    QCUT    max X(q) W(low)/X(q) W(high)/X(q)  e(spline)
   0     11    11.338     6.584    0.15E-04    0.24E-05    0.13E-07
   0     11    11.338    11.383    0.41E-04    0.15E-04    0.15E-06
   1     10    11.338     3.802    0.90E-05    0.33E-06    0.26E-07
   1     10    11.338    39.081    0.19E-03    0.53E-04    0.42E-06
   2     10    11.338     4.950    0.16E-04    0.40E-04    0.77E-07
   2     10    11.338    88.754    0.21E-03    0.41E-03    0.42E-06
 Optimization of the real space projectors (new method)

 maximal supplied QI-value         = 13.42
 optimisation between [QCUT,QGAM] = [ 11.40, 22.81] = [ 36.42,145.68] Ry
 Optimized for a Real-space Cutoff    1.56 Angstroem

   l    n(q)    QCUT    max X(q) W(low)/X(q) W(high)/X(q)  e(spline)
   2     10    11.404     5.474    0.19E-04    0.47E-04    0.83E-07
   2     10    11.404    20.898    0.26E-03    0.65E-03    0.73E-06
   0     11    11.404    23.292    0.21E-04    0.14E-04    0.20E-07
   0     11    11.404    27.738    0.14E-03    0.16E-03    0.29E-06
   1     10    11.404     9.492    0.33E-04    0.56E-04    0.16E-06
 PAW_PBE O 08Apr2002                    :
 PAW_PBE Sr_sv 07Sep2000                :
 PAW_PBE Ti 08Apr2002                   :

 POSCAR:  O Sr Ti
  positions in direct lattice
 exchange correlation table for  LEXCH =        8
   RHO(1)=    0.500       N(1)  =     2000
   RHO(2)=  100.500       N(2)  =     4000

 ion  position               nearest neighbor table
   1  0.500  0.500  0.300-  17 1.97  14 2.79  13 2.79  13 2.79
   2  0.500  0.000  0.300-  17 1.97  13 2.79  13 2.79  14 2.79
   3  0.000  0.500  0.300-  17 1.97  13 2.79  13 2.79  14 2.79
   4  0.167  0.167  0.414-  18 1.97  17 1.97  13 2.79  14 2.79  14 2.79  15 2.79
   5  0.167  0.667  0.414-  18 1.97  17 1.97  15 2.79  14 2.79  14 2.79  13 2.79
   6  0.667  0.167  0.414-  18 1.97  17 1.97  15 2.79  14 2.79  14 2.79  13 2.79
   7  0.833  0.833  0.529-  19 1.97  18 1.97  16 2.79  15 2.79  15 2.79  14 2.79
   8  0.833  0.333  0.529-  19 1.97  18 1.97  14 2.79  15 2.79  15 2.79  16 2.79
   9  0.333  0.833  0.529-  19 1.97  18 1.97  14 2.79  15 2.79  15 2.79  16 2.79
  10  0.500  0.500  0.643-  20 1.97  19 1.97  15 2.79  16 2.79  16 2.79
  11  0.500  0.000  0.643-  20 1.97  19 1.97  16 2.79  16 2.79  15 2.79
  12  0.000  0.500  0.643-  20 1.97  19 1.97  16 2.79  16 2.79  15 2.79
  13  0.000  0.000  0.300-   4 2.79   3 2.79   2 2.79   1 2.79   3 2.79   1 2.79   2 2.79   6 2.79
                             5 2.79  18 3.42  17 3.42  17 3.42  17 3.42  14 3.95  14 3.95  14 3.95
  14  0.667  0.667  0.414-   1 2.79   8 2.79   9 2.79   5 2.79   6 2.79   4 2.79   6 2.79   4 2.79
                             5 2.79   3 2.79   2 2.79   7 2.79  19 3.42  18 3.42  18 3.42  17 3.42
  15  0.333  0.333  0.529-   5 2.79   6 2.79  10 2.79   9 2.79   8 2.79   7 2.79   9 2.79   7 2.79
                             8 2.79  12 2.79  11 2.79   4 2.79  19 3.42  20 3.42  19 3.42  19 3.42
  16  0.000  0.000  0.643-   7 2.79  11 2.79  12 2.79  10 2.79  12 2.79  10 2.79  11 2.79   9 2.79
                             8 2.79  20 3.42  20 3.42  20 3.42  19 3.42  19 3.42  19 3.42  18 3.42
  17  0.333  0.333  0.357-   1 1.97   3 1.97   2 1.97   5 1.97   6 1.97   4 1.97  13 3.42  13 3.42
                            14 3.42  13 3.42  14 3.42  14 3.42  15 3.42
  18  0.000  0.000  0.471-   4 1.97   6 1.97   5 1.97   7 1.97   9 1.97   8 1.97  13 3.42  14 3.42
                            14 3.42  14 3.42  15 3.42  15 3.42  15 3.42  16 3.42
  19  0.667  0.667  0.586-   8 1.97   9 1.97   7 1.97  10 1.97  12 1.97  11 1.97  15 3.42  14 3.42
                            15 3.42  15 3.42  16 3.42  16 3.42  16 3.42
  20  0.333  0.333  0.700-  10 1.97  12 1.97  11 1.97  15 3.42  16 3.42  16 3.42  16 3.42

  LATTYP: Found a hexagonal cell.
 ALAT       =     5.5816836249
 C/A-ratio  =     3.5787579760

  Lattice vectors:

 A1 = (   2.7908418125,  -4.8338798151,   0.0000000000)
 A2 = (  -5.5816836249,   0.0000000000,   0.0000000000)
 A3 = (   0.0000000000,   0.0000000000, -19.9754947922)

Analysis of symmetry for initial positions (statically):
 Subroutine PRICEL returns:
 Original cell was already a primitive cell.

 Routine SETGRP: Setting up the symmetry group for a
 hexagonal supercell.

 Subroutine GETGRP returns: Found  6 space group operations
 (whereof  6 operations were pure point group operations)
 out of a pool of 24 trial point group operations.

The static configuration has the point symmetry C_3v.

Analysis of symmetry for dynamics (positions and initial velocities):
 Subroutine PRICEL returns:
 Original cell was already a primitive cell.

 Routine SETGRP: Setting up the symmetry group for a
 hexagonal supercell.

 Subroutine GETGRP returns: Found  6 space group operations
 (whereof  6 operations were pure point group operations)
 out of a pool of 24 trial point group operations.

The dynamic configuration has the point symmetry C_3v.

 Subroutine INISYM returns: Found  6 space group operations
 (whereof  6 operations are pure point group operations),
 and found     1 'primitive' translations

 KPOINTS: k-density: 4.0

Automatic generation of k-mesh.
Space group operators:
 irot       det(A)        alpha          n_x          n_y          n_z        tau_x        tau_y        tau_z
    1     1.000000     0.000000     1.000000     0.000000     0.000000     0.000000     0.000000     0.000000
    2     1.000000   120.000000     0.000000     0.000000     1.000000     0.000000     0.000000     0.000000
    3     1.000000   120.000000     0.000000     0.000000    -1.000000     0.000000     0.000000     0.000000
    4    -1.000000   180.000000     0.500000    -0.866025     0.000000     0.000000     0.000000     0.000000
    5    -1.000000   180.000000     1.000000     0.000000     0.000000     0.000000     0.000000     0.000000
    6    -1.000000   180.000000    -0.500000    -0.866025     0.000000     0.000000     0.000000     0.000000

 Subroutine IBZKPT returns following result:

 Found      5 irreducible k-points:

 Following reciprocal coordinates:
            Coordinates               Weight
  0.000000  0.000000  0.000000      1.000000
  0.200000  0.000000  0.000000      6.000000
  0.400000  0.000000  0.000000      6.000000
  0.400000  0.200000  0.000000      6.000000
 -0.400000  0.200000  0.000000      6.000000

 Following cartesian coordinates:
            Coordinates               Weight
  0.000000  0.000000  0.000000      1.000000
  0.035831 -0.020687  0.000000      6.000000
  0.071663 -0.041375  0.000000      6.000000
  0.071663  0.000000  0.000000      6.000000
 -0.071663  0.082749  0.000000      6.000000

 SYSTEM =  unknown system
 POSCAR =   O Sr Ti

 Startparameter for this run:
   NWRITE =      2    write-flag & timer
   PREC   = normal    normal or accurate (medium, high low for compatibility)
   ISTART =      0    job   : 0-new  1-cont  2-samecut
   ICHARG =      2    charge: 1-file 2-atom 10-const
   ISPIN  =      1    spin polarized calculation?
   LNONCOLLINEAR =      F non collinear calculations
   LSORBIT =      F    spin-orbit coupling
   INIWAV =      1    electr: 0-lowe 1-rand  2-diag
   LASPH  =      F    aspherical Exc in radial PAW
   METAGGA=      F    non-selfconsistent MetaGGA calc.

 Electronic Relaxation 1
   ENCUT  =  500.0 eV  36.75 Ry    6.06 a.u.  10.18 10.18 36.42*2*pi/ulx,y,z
   ENINI  =  500.0     initial cutoff
   ENAUG  =  605.4 eV  augmentation charge cutoff
   NELM   =     60;   NELMIN=  4; NELMDL= -5     # of ELM steps
   EDIFF  = 0.1E-04   stopping-criterion for ELM
   LREAL  =      T    real-space projection
   NLSPLINE    = F    spline interpolate recip. space projectors
   LCOMPAT=      F    compatible to vasp.4.4
   GGA_COMPAT  = T    GGA compatible to vasp.4.4-vasp.4.6
   LMAXPAW     = -100 max onsite density
   LMAXMIX     =    2 max onsite mixed and CHGCAR
   VOSKOWN=      0    Vosko Wilk Nusair interpolation
   ROPT   =   -0.00050  -0.00050  -0.00050
 Ionic relaxation
   EDIFFG = -.5E-01   stopping-criterion for IOM
   NSW    =    200    number of steps for IOM
   NBLOCK =      1;   KBLOCK =    200    inner block; outer block
   IBRION =      1    ionic relax: 0-MD 1-quasi-New 2-CG
   NFREE  =      0    steps in history (QN), initial steepest desc. (CG)
   ISIF   =      2    stress and relaxation
   IWAVPR =     11    prediction:  0-non 1-charg 2-wave 3-comb
   ISYM   =      2    0-nonsym 1-usesym 2-fastsym
   LCORR  =      T    Harris-Foulkes like correction to forces

   POTIM  = 0.5000    time-step for ionic-motion
   TEIN   =    0.0    initial temperature
   TEBEG  =    0.0;   TEEND  =   0.0 temperature during run
   SMASS  =  -3.00    Nose mass-parameter (am)
   estimated Nose-frequenzy (Omega)   =  0.10E-29 period in steps =****** mass=  -0.712E-27a.u.
   SCALEE = 1.0000    scale energy and forces
   NPACO  =    256;   APACO  = 16.0  distance and # of slots for P.C.
   PSTRESS=    0.0 pullay stress

  Mass of Ions in am
   POMASS =  16.00 87.62 47.88
  Ionic Valenz
   ZVAL   =   6.00 10.00  4.00
  Atomic Wigner-Seitz radii
  virtual crystal weights
   VCA    =   1.00  1.00  1.00
[...]
   -.118E-07 -.680E-08 0.267E+02   0.342E-13 -.326E-15 -.288E+02   0.260E-17 0.694E-17 -.863E+00   0.284E-08 0.164E-08 0.202E-01
   0.182E-06 0.105E-06 -.443E+03   0.147E-10 0.855E-11 0.441E+03   -.217E-16 0.520E-17 -.569E+00   0.341E-08 0.197E-08 0.193E-01
   -.124E-05 -.718E-06 -.844E+03   -.523E-11 -.303E-11 0.837E+03   0.000E+00 0.347E-17 0.171E+01   -.343E-08 -.198E-08 -.236E-02
   0.128E-04 0.739E-05 -.690E+02   -.159E-13 -.113E-13 -.455E-12   0.431E-15 -.110E-14 0.686E+02   -.506E-08 -.292E-08 0.373E+00

 POSITION                                       TOTAL-FORCE (eV/Angst)
      4.18626      2.41694      6.00000        -0.711349     -0.410698      0.720040
      2.79084      0.00000      6.00000         0.000000      0.821395      0.720040
      1.39542      2.41694      6.00000         0.711349     -0.410698      0.720040
      1.39542      0.80565      8.27871        -0.836902     -0.483186      1.351688
      2.79084      3.22259      8.27871         0.000000      0.966372      1.351688
      4.18626      0.80565      8.27871         0.836902     -0.483186      1.351688
      6.97710      4.02823     10.55743        -0.523422     -0.302198      1.348352
      5.58168      1.61129     10.55743         0.000000      0.604396      1.348352
      4.18626      4.02823     10.55743         0.523422     -0.302198      1.348352
      4.18626      2.41694     12.83614        -1.624829     -0.938095      2.471076
      2.79084      0.00000     12.83614         0.000000      1.876191      2.471076
      1.39542      2.41694     12.83614         1.624829     -0.938095      2.471076
      0.00000      0.00000      6.00000         0.000000     -0.000000     -0.246200
      5.58168      3.22259      8.27871         0.000000     -0.000000     -1.250172
      2.79084      1.61129     10.55743         0.000000     -0.000000     -0.942151
      0.00000      0.00000     12.83614         0.000000     -0.000000     -1.552502
      2.79084      1.61129      7.13936         0.000000     -0.000000     -3.314800
      0.00000      0.00000      9.41807         0.000000     -0.000000     -2.909306
      5.58168      3.22259     11.69678         0.000000     -0.000000     -2.193072
      2.79084      1.61129     13.97549         0.000000     -0.000000     -5.265265
    total drift:                                0.000013      0.000007      0.026136

  FREE ENERGIE OF THE ION-ELECTRON SYSTEM (eV)
  free  energy   TOTEN  =      -147.90143561 eV

  energy  without entropy=     -147.58038588  energy(sigma->0) =     -147.74091075

 Quasi-Newton relaxation of ions (Broydens 2nd method)
  g(Force)  = 0.503E+01   g(Stress)= 0.000E+00

 Reset! Starting new Quasi-Newton update for ions

[...]

 d Force = 0.1588643E+01[-0.185E+01, 0.503E+01]  d Energy = 0.2629231E+01-0.104E+01
 d Force =-0.5522825E+02[-0.670E+02,-0.434E+02]  d Ewald  =-0.5588825E+02 0.660E+00

[...]

 retain information from N=  1 steps
 eigenvalues of (default step * inverse Hessian matrix)
  average eigenvalue of G=   0.3713
 eigenvalue spectrum of G is  0.3713

[...]

 d Force = 0.7047629E+00[-0.101E+01, 0.241E+01]  d Energy = 0.6197382E+00 0.850E-01
 d Force = 0.9207430E+01[-0.131E+00, 0.185E+02]  d Ewald  = 0.9082584E+01 0.125E+00

[...]

 d Force = 0.6196156E+00[ 0.193E+00, 0.105E+01]  d Energy = 0.9099211E+00-0.290E+00
 d Force = 0.9283978E+02[ 0.921E+02, 0.936E+02]  d Ewald  = 0.9281597E+02 0.238E-01

[...]

 d Force = 0.2021888E+00[ 0.690E-01, 0.335E+00]  d Energy =-0.1032632E+00 0.305E+00
 d Force =-0.2411462E+02[-0.240E+02,-0.243E+02]  d Ewald  =-0.2411948E+02 0.485E-02

[...]

 d Force = 0.3268339E-02[-0.884E-04, 0.663E-02]  d Energy = 0.3278875E-02-0.105E-04
 d Force = 0.3226645E+02[ 0.322E+02, 0.323E+02]  d Ewald  = 0.3226646E+02-0.959E-05

[...]

 d Force =-0.7373820E-02[-0.119E-01,-0.283E-02]  d Energy =-0.7512825E-02 0.139E-03
 d Force =-0.1127446E+03[-0.113E+03,-0.113E+03]  d Ewald  =-0.1127447E+03 0.713E-04

[...]

 d Force = 0.4116672E-03[-0.124E-03, 0.948E-03]  d Energy = 0.4290805E-03-0.174E-04
 d Force = 0.7161118E+01[ 0.716E+01, 0.716E+01]  d Ewald  = 0.7161117E+01 0.134E-05

[...]

 eigenvalue-minimisations  :   834
 total energy-change (2. order) : 0.1204377E-04  (-0.3461107E-04)
 number of electron     128.0000052 magnetization
 augmentation part       13.8535191 magnetization

[...]

 real space projection operators:
  max/ min on nodes  :       1019.25       1011.19

[...]

 Broyden mixing:
  rms(total) = 0.52127E-03    rms(broyden)= 0.51704E-03
  rms(prec ) = 0.61375E-03
  weight for this iteration     100.00

 eigenvalues of (default mixing * dielectric matrix)
  average eigenvalue GAMMA=   1.6382
  3.5898  3.0732  3.0732  2.9827  0.0910  2.6782  2.6782  2.3307  2.3307  1.5745
  1.5745  1.9935  1.9935  2.6152  2.6152  2.5520  2.5520  2.6650  2.6650  2.6401
  2.6401  2.2774  2.2774  2.5231  2.5231  2.4317  2.4317  2.1592  2.1592  2.4045
  2.4045  2.3352  2.1459  2.1459  1.9680  1.9680  1.9863  0.4050  0.4050  0.2674
  1.6814  1.6814  1.4387  1.4387  1.6557  1.6557  0.3838  1.1595  1.1595  0.6305
  0.6305  1.4730  1.4730  1.0797  1.0797  0.9575  0.9575  0.5198  0.5198  1.2021
  1.2021  1.3843  1.3104  1.3104  1.2443  0.6394  0.6974  0.7548  0.7548  0.8432
  0.8432  1.1211  0.7797  0.9026  0.9026  0.9900  0.9900  0.8943  0.9529

[...]

--------------------------------------- Iteration     23(   4)  ---------------------------------------

 eigenvalue-minimisations  :   422
 total energy-change (2. order) :-0.3468205E-05  (-0.1714210E-05)
 number of electron     128.0000051 magnetization
 augmentation part       13.8537621 magnetization

 Free energy of the ion-electron system (eV)
  alpha Z        PSCENC =       327.81082936
  Ewald energy   TEWEN  =     18716.13716879
  -Hartree energ DENC   =    -27310.25759158
  -exchange      EXHF   =         0.00000000
  -V(xc)+E(xc)   XCENC  =       339.47481789
  PAW double counting   =      6226.51531658    -6056.33641675
  entropy T*S    EENTRO =        -0.09359564
  eigenvalues    EBANDS =     -1333.10145396
  atomic energy  EATOM  =      8937.26825017
  Solvation  Ediel_sol  =         0.00000000
  free energy    TOTEN  =      -152.58267513 eV

  energy without entropy =     -152.48907949  energy(sigma->0) =     -152.53587731

 average (electrostatic) potential at core
  the test charge radii are     0.7215  1.1929  1.2598
  (the norm of the test charge is              1.0000)
       1 -73.5397       2 -73.5397       3 -73.5397       4 -74.7131       5 -74.7131
       6 -74.7131       7 -75.4214       8 -75.4215       9 -75.4215      10 -76.3207
      11 -76.3207      12 -76.3207      13 -40.4670      14 -39.1197      15 -40.2377
      16 -40.9906      17 -28.7844      18 -30.2632      19 -31.0192      20 -31.3315

 E-fermi :  -0.5525     XC(G=0):  -5.8926     alpha+bet : -5.5853

[...]

 k-point     5 :      -0.4000    0.2000    0.0000
  band No.  band energies     occupation
      1     -34.9260      2.00000
      2     -34.3031      2.00000
      3     -34.1654      2.00000
      4     -33.0655      2.00000
      5     -19.1954      2.00000
      6     -18.8996      2.00000
      7     -18.8424      2.00000
      8     -18.5462      2.00000
      9     -18.2401      2.00000
     10     -18.1325      2.00000
     11     -18.0413      2.00000
     12     -17.6865      2.00000
     13     -17.4178      2.00000
     14     -17.0369      2.00000
     15     -16.7795      2.00000
     16     -16.7408      2.00000
     17     -16.6812      2.00000
     18     -16.6202      2.00000
     19     -16.4897      2.00000
     20     -16.2141      2.00000
     21     -15.9477      2.00000
     22     -15.9227      2.00000
     23     -15.9194      2.00000
     24     -15.8146      2.00000
     25     -15.6357      2.00000
     26     -14.7904      2.00000
     27     -14.7479      2.00000
     28     -14.5412      2.00000
     29      -6.0628      2.00000
     30      -5.9612      2.00000
     31      -5.7787      2.00000
     32      -5.5102      2.00000
     33      -5.2804      2.00000
     34      -5.2337      2.00000
     35      -4.8743      2.00000
     36      -4.8152      2.00000
     37      -4.6376      2.00000
     38      -4.5002      2.00000
     39      -4.3738      2.00000
     40      -4.3269      2.00000
     41      -4.2213      2.00000
     42      -4.1073      2.00000
     43      -3.9920      2.00000
     44      -3.7436      2.00000
     45      -3.7022      2.00000
     46      -3.5785      2.00000
     47      -3.4274      2.00000
     48      -3.3634      2.00000
     49      -3.3423      2.00000
     50      -3.1399      2.00000
     51      -2.9988      2.00000
     52      -2.8854      2.00000
     53      -2.8278      2.00000
     54      -2.6992      2.00000
     55      -2.5573      2.00000
     56      -2.3804      2.00000
     57      -2.1038      2.00000
     58      -1.9835      2.00000
     59      -1.9444      2.00000
     60      -1.5680      2.00000
     61      -1.3115      2.00000
     62      -1.1108      1.99992
     63      -0.9584      1.99590
     64      -0.8005      1.92050
     65      -0.1448      0.00394
     66       0.8086      0.00000
     67       1.1292      0.00000
     68       1.2314      0.00000
     69       1.6758      0.00000
     70       1.7719      0.00000
     71       2.1360      0.00000
     72       2.2504      0.00000
     73       2.3332      0.00000
     74       2.4660      0.00000
     75       2.5660      0.00000
     76       2.6840      0.00000

 soft charge-density along one line, spin component           1
         0         1         2         3         4         5         6         7         8         9
 total charge-density along one line

------------------------ aborting loop because EDIFF is reached ----------------------------------------

  FORCE on cell =-STRESS in cart. coord.  units (eV):
  Direction    XX          YY          ZZ          XY          YZ          ZX
  Alpha Z   327.81083   327.81083   327.81083
  Ewald   23689.73844 23689.73844-28663.35342    -0.00000    -0.00000    -0.00000
  Hartree 26032.66566 26032.66566-24755.65413    -0.00000     0.00000     0.00000
  E(xc)    -578.98257  -578.98255  -575.81788    -0.00002    -0.00001    -0.00002
  Local  -51327.24970-51327.25118 51810.22547     0.00128    -0.00018    -0.00032
  n-local  -481.64754  -479.88875  -491.40744     0.98205    -1.16593     1.23683
  augment   115.51581   115.51594   115.08695    -0.00011    -0.00001    -0.00001
  Kinetic  2222.03281  2232.29503  2234.05135     5.22977     0.89627    -0.87374
  Fock        0.00000     0.00000     0.00000     0.00000     0.00000     0.00000
  Total       5.89360     5.89360     0.94173     0.00000     0.00000     0.00000
  in kB      17.51993    17.51993     2.79950     0.00000     0.00000     0.00000

 VOLUME and BASIS-vectors are now :
  energy-cutoff  :      500.00
  volume of cell :      538.96
      direct lattice vectors                 reciprocal lattice vectors
     5.581683625  0.000000000  0.000000000     0.179157413 -0.103436581  0.000000000
     2.790841812  4.833879815  0.000000000     0.000000000  0.206873162  0.000000000
     0.000000000  0.000000000 19.975494792     0.000000000  0.000000000  0.050061338

  length of vectors
     5.581683625  5.581683625 19.975494792     0.206873162  0.206873162  0.050061338

 FORCES acting on ions
    electron-ion (+dipol)            ewald-force                    non-local-force                 convergence-correction
   -.163E+02 -.943E+01 0.104E+04   0.282E+02 0.163E+02 -.106E+04   -.118E+02 -.683E+01 0.118E+02   0.169E-03 0.973E-04 0.693E-03
   -.101E-04 0.189E+02 0.104E+04   -.399E-11 -.325E+02 -.106E+04   0.444E-15 0.137E+02 0.118E+02   0.139E-07 -.195E-03 0.693E-03
   0.163E+02 -.943E+01 0.104E+04   -.282E+02 0.163E+02 -.106E+04   0.118E+02 -.683E+01 0.118E+02   -.169E-03 0.974E-04 0.693E-03
   0.675E-01 0.389E-01 0.334E+03   0.710E+01 0.410E+01 -.340E+03   -.717E+01 -.414E+01 0.562E+01   0.543E-04 0.313E-04 -.317E-01
   -.611E-05 -.779E-01 0.334E+03   -.458E-11 -.819E+01 -.340E+03   0.000E+00 0.828E+01 0.562E+01   -.444E-07 -.626E-04 -.317E-01
   -.674E-01 0.389E-01 0.334E+03   -.710E+01 0.410E+01 -.340E+03   0.717E+01 -.414E+01 0.562E+01   -.543E-04 0.313E-04 -.317E-01
   0.155E+02 0.893E+01 -.325E+03   -.959E+01 -.554E+01 0.319E+03   -.587E+01 -.339E+01 0.584E+01   0.179E-02 0.103E-02 -.321E-01
   -.888E-06 -.179E+02 -.325E+03   -.108E-10 0.111E+02 0.319E+03   0.000E+00 0.678E+01 0.584E+01   -.321E-07 -.206E-02 -.321E-01
   -.155E+02 0.893E+01 -.325E+03   0.959E+01 -.554E+01 0.319E+03   0.587E+01 -.339E+01 0.584E+01   -.179E-02 0.103E-02 -.321E-01
   -.193E+02 -.111E+02 -.997E+03   0.309E+02 0.178E+02 0.996E+03   -.117E+02 -.673E+01 0.136E+01   0.118E-01 0.679E-02 -.314E-01
   0.102E-04 0.222E+02 -.997E+03   -.134E-11 -.357E+02 0.996E+03   -.444E-15 0.135E+02 0.136E+01   0.509E-08 -.136E-01 -.314E-01
   0.193E+02 -.111E+02 -.997E+03   -.309E+02 0.178E+02 0.996E+03   0.117E+02 -.673E+01 0.136E+01   -.118E-01 0.679E-02 -.314E-01
   -.722E-05 -.417E-05 0.171E+04   0.764E-11 0.443E-11 -.171E+04   0.217E-18 -.434E-18 -.243E+01   -.115E-08 -.648E-09 0.205E-02
   -.103E-04 -.595E-05 0.697E+03   0.121E-10 0.713E-11 -.703E+03   0.390E-17 -.520E-17 0.655E+01   0.456E-08 0.263E-08 -.547E-01
   -.106E-04 -.614E-05 -.430E+03   0.205E-11 0.116E-11 0.425E+03   0.130E-17 0.000E+00 0.539E+01   0.833E-09 0.485E-09 -.597E-01
   -.113E-04 -.650E-05 -.154E+04   0.805E-11 0.479E-11 0.153E+04   0.217E-17 0.867E-18 0.625E+01   -.155E-08 -.887E-09 -.473E-01
   -.148E-05 -.856E-06 0.485E+03   -.206E-11 -.111E-11 -.487E+03   0.000E+00 -.347E-17 0.160E+01   -.143E-08 -.832E-09 -.140E-01
   -.265E-06 -.153E-06 0.208E+02   -.123E-11 -.571E-12 -.216E+02   -.347E-16 -.694E-17 0.858E+00   -.370E-08 -.213E-08 -.217E-01
   0.416E-06 0.240E-06 -.415E+03   0.662E-11 0.372E-11 0.414E+03   0.243E-16 -.139E-16 0.585E+00   -.115E-08 -.672E-09 -.223E-01
   -.260E-05 -.150E-05 -.795E+03   0.471E-11 0.264E-11 0.789E+03   0.347E-17 0.000E+00 0.544E+01   0.479E-09 0.279E-09 -.121E-01
   -.314E-04 -.181E-04 -.975E+02   -.198E-13 -.337E-14 0.102E-11   0.355E-14 0.859E-15 0.980E+02   -.100E-07 -.580E-08 -.513E+00

 POSITION                                       TOTAL-FORCE (eV/Angst)
      4.18942      2.41876      5.95823         0.004397      0.002538     -0.035261
      2.79084     -0.00364      5.95823        -0.000000     -0.005077     -0.035261
      1.39226      2.41876      5.95823        -0.004397      0.002538     -0.035261
      1.38939      0.80216      8.35949        -0.002886     -0.001666     -0.015532
      2.79084      3.22955      8.35949         0.000000      0.003332     -0.015532
      4.19230      0.80216      8.35949         0.002886     -0.001666     -0.015532
      6.98785      4.03444     10.79381        -0.005937     -0.003428      0.015736
      5.58168      1.59888     10.79381         0.000000      0.006856      0.015736
      4.17551      4.03444     10.79381         0.005937     -0.003428      0.015736
      4.21282      2.43227     13.19186         0.009140      0.005277      0.044897
      2.79084     -0.03066     13.19186         0.000000     -0.010554      0.044897
      1.36887      2.43227     13.19186        -0.009140      0.005277      0.044897
      0.00000     -0.00000      5.79610         0.000000      0.000000     -0.042583
      5.58168      3.22259      7.78295         0.000000      0.000000     -0.032321
      2.79084      1.61129     10.23191         0.000000      0.000000     -0.011119
      0.00000     -0.00000     12.65494         0.000000      0.000000      0.018906
      2.79084      1.61129      6.77567         0.000000      0.000000     -0.030792
      0.00000     -0.00000      9.24353         0.000000      0.000000      0.002774
      5.58168      3.22259     11.65167         0.000000      0.000000      0.021004
      2.79084      1.61129     13.87188         0.000000      0.000000      0.044607
    total drift:                               -0.000031     -0.000018     -0.053836

  FREE ENERGIE OF THE ION-ELECTRON SYSTEM (eV)
  free  energy   TOTEN  =      -152.58267513 eV

  energy  without entropy=     -152.48907949  energy(sigma->0) =     -152.53587731

 d Force = 0.4137616E-03[ 0.391E-03, 0.436E-03]  d Energy = 0.4223518E-03-0.859E-05
 d Force = 0.9687903E+01[ 0.969E+01, 0.969E+01]  d Ewald  = 0.9687899E+01 0.433E-05

 Quasi-Newton relaxation of ions (Broydens 2nd method)
  g(Force)  = 0.895E-03   g(Stress)= 0.000E+00

 retain information from N=  3 steps
 eigenvalues of (default step * inverse Hessian matrix)
  average eigenvalue of G=   1.0439
 eigenvalue spectrum of G is  2.2555  0.3421  0.5342

 reached required accuracy - stopping structural energy minimisation