 vasp.5.4.4.18Apr17-6-g9f103f2a35 (build Jun 30 2017 11:15:00) complex

 executed on    STALLO_VASP_5.4.4 date 2019.11.04  17:07:41

 INCAR:
 POTCAR:   PAW_PBE O 08Apr2002
 POTCAR:   PAW_PBE Sr_sv 07Sep2000
 POTCAR:   PAW_PBE Ti 08Apr2002
 POTCAR:   PAW_PBE O 08Apr2002
   VRHFIN =O: s2p4

   TITEL  = PAW_PBE O 08Apr2002
   POMASS =   16.000; ZVAL   =    6.000    mass and valenz
   ENMAX  =  400.000; ENMIN  =  300.000 eV
   QCUT   =   -5.520; QGAM   =   11.041    optimization parameters

   Description
     l     E      TYP  RCUT    TYP  RCUT
     0   .000     23  1.200
     0  -.700     23  1.200
     1   .000     23  1.520
     1   .600     23  1.520
     2   .000      7  1.500

 POTCAR:   PAW_PBE Sr_sv 07Sep2000
   VRHFIN =Sr: 4s4p5s

   TITEL  = PAW_PBE Sr_sv 07Sep2000
   POMASS =   87.620; ZVAL   =   10.000    mass and valenz
   ENMAX  =  229.282; ENMIN  =  171.961 eV
   QCUT   =   -4.105; QGAM   =    8.210    optimization parameters

[...]

 POTCAR:   PAW_PBE Ti 08Apr2002
   VRHFIN =Ti: d3 s1

   TITEL  = PAW_PBE Ti 08Apr2002
   POMASS =   47.880; ZVAL   =    4.000    mass and valenz
   ENMAX  =  178.330; ENMIN  =  133.747 eV
   QCUT   =   -3.620; QGAM   =    7.241    optimization parameters

   Description
     l     E      TYP  RCUT    TYP  RCUT
     2   .000     23  2.800
     2   .000     23  2.800
     0   .000     23  2.800
     0  1.500     23  2.800
     1  -.400     23  2.800
     3   .000      7   .000

 Optimization of the real space projectors (new method)

 maximal supplied QI-value         = 24.76
 optimisation between [QCUT,QGAM] = [ 11.39, 22.77] = [ 36.31,145.25] Ry
 Optimized for a Real-space Cutoff    1.00 Angstroem

   l    n(q)    QCUT    max X(q) W(low)/X(q) W(high)/X(q)  e(spline)
   0      7    11.387     4.192    0.89E-04    0.26E-03    0.19E-07
   0      7    11.387     8.473    0.42E-03    0.14E-02    0.17E-06
   1      6    11.387     2.474    0.11E-03    0.26E-03    0.18E-07
   1      6    11.387     3.912    0.39E-03    0.87E-03    0.15E-06
 Optimization of the real space projectors (new method)

[...]

   l    n(q)    QCUT    max X(q) W(low)/X(q) W(high)/X(q)  e(spline)
   0     11    11.338     6.584    0.15E-04    0.24E-05    0.13E-07
   0     11    11.338    11.383    0.41E-04    0.15E-04    0.15E-06
   1     10    11.338     3.802    0.90E-05    0.33E-06    0.26E-07
   1     10    11.338    39.081    0.19E-03    0.53E-04    0.42E-06
   2     10    11.338     4.950    0.16E-04    0.40E-04    0.77E-07
   2     10    11.338    88.754    0.21E-03    0.41E-03    0.42E-06
 Optimization of the real space projectors (new method)

 maximal supplied QI-value         = 13.42
 optimisation between [QCUT,QGAM] = [ 11.40, 22.81] = [ 36.42,145.68] Ry
 Optimized for a Real-space Cutoff    1.56 Angstroem

   l    n(q)    QCUT    max X(q) W(low)/X(q) W(high)/X(q)  e(spline)
   2     10    11.404     5.474    0.19E-04    0.47E-04    0.83E-07
   2     10    11.404    20.898    0.26E-03    0.65E-03    0.73E-06
   0     11    11.404    23.292    0.21E-04    0.14E-04    0.20E-07
   0     11    11.404    27.738    0.14E-03    0.16E-03    0.29E-06
   1     10    11.404     9.492    0.33E-04    0.56E-04    0.16E-06
 PAW_PBE O 08Apr2002                    :
 PAW_PBE Sr_sv 07Sep2000                :
 PAW_PBE Ti 08Apr2002                   :

 POSCAR:  O Sr Ti
  positions in direct lattice
 exchange correlation table for  LEXCH =        8
   RHO(1)=    0.500       N(1)  =     2000
   RHO(2)=  100.500       N(2)  =     4000

 ion  position               nearest neighbor table
   1  0.500  0.500  0.232-  17 1.97  13 2.79  13 2.79  13 2.79  13 2.79
   2  0.500  0.000  0.309-  17 1.97  17 1.97  14 2.79  14 2.79  13 2.79  13 2.79
   3  0.000  0.500  0.309-  17 1.97  17 1.97  14 2.79  14 2.79  13 2.79  13 2.79
   4  0.500  0.500  0.385-  17 1.97  18 1.97  14 2.79  14 2.79  14 2.79  14 2.79
   5  0.500  0.000  0.462-  18 1.97  18 1.97  14 2.79  15 2.79  14 2.79  15 2.79
   6  0.000  0.500  0.462-  18 1.97  18 1.97  14 2.79  14 2.79  15 2.79  15 2.79
   7  0.500  0.500  0.538-  18 1.97  19 1.97  15 2.79  15 2.79  15 2.79  15 2.79
   8  0.500  0.000  0.615-  19 1.97  19 1.97  16 2.79  16 2.79  15 2.79  15 2.79
   9  0.000  0.500  0.615-  19 1.97  19 1.97  16 2.79  16 2.79  15 2.79  15 2.79
  10  0.500  0.500  0.691-  19 1.97  20 1.97  16 2.79  16 2.79  16 2.79  16 2.79
  11  0.500  0.000  0.768-  20 1.97  20 1.97  16 2.79  16 2.79
  12  0.000  0.500  0.768-  20 1.97  20 1.97  16 2.79  16 2.79
  13  0.000  0.000  0.232-   1 2.79   1 2.79   1 2.79   1 2.79   3 2.79   3 2.79   2 2.79   2 2.79
                            17 3.42  17 3.42  17 3.42  17 3.42  14 3.95
  14  0.000  0.000  0.385-   2 2.79   3 2.79   3 2.79   2 2.79   4 2.79   4 2.79   4 2.79   4 2.79
                             5 2.79   6 2.79   5 2.79   6 2.79  17 3.42  17 3.42  17 3.42  17 3.42
  15  0.000  0.000  0.538-   7 2.79   7 2.79   7 2.79   7 2.79   9 2.79   6 2.79   6 2.79   9 2.79
                             5 2.79   5 2.79   8 2.79   8 2.79  19 3.42  18 3.42  18 3.42  18 3.42
  16  0.000  0.000  0.691-   8 2.79   9 2.79   9 2.79   8 2.79  10 2.79  10 2.79  10 2.79  10 2.79
                            11 2.79  12 2.79  11 2.79  12 2.79  19 3.42  19 3.42  19 3.42  19 3.42
  17  0.500  0.500  0.309-   4 1.97   3 1.97   2 1.97   2 1.97   3 1.97   1 1.97  14 3.42  14 3.42
                            14 3.42  14 3.42  13 3.42  13 3.42  13 3.42  13 3.42
  18  0.500  0.500  0.462-   5 1.97   6 1.97   5 1.97   6 1.97   4 1.97   7 1.97  14 3.42  14 3.42
                            15 3.42  15 3.42  14 3.42  15 3.42  14 3.42  15 3.42
  19  0.500  0.500  0.615-  10 1.97   9 1.97   8 1.97   8 1.97   9 1.97   7 1.97  16 3.42  16 3.42
                            16 3.42  16 3.42  15 3.42  15 3.42  15 3.42  15 3.42
  20  0.500  0.500  0.768-  11 1.97  12 1.97  11 1.97  12 1.97  10 1.97  16 3.42  16 3.42  16 3.42
                            16 3.42

  LATTYP: Found a simple tetragonal cell.
 ALAT       =     3.9468463416
 C/A-ratio  =     6.5404021240

  Lattice vectors:

 A1 = (   3.9468463416,   0.0000000000,   0.0000000000)
 A2 = (   0.0000000000,   3.9468463416,   0.0000000000)
 A3 = (   0.0000000000,   0.0000000000,  25.8139621957)

Analysis of symmetry for initial positions (statically):
 Subroutine PRICEL returns:
 Original cell was already a primitive cell.

 Routine SETGRP: Setting up the symmetry group for a
 simple tetragonal supercell.

 Subroutine GETGRP returns: Found  8 space group operations
 (whereof  8 operations were pure point group operations)
 out of a pool of 16 trial point group operations.

The static configuration has the point symmetry C_4v.

Analysis of symmetry for dynamics (positions and initial velocities):
 Subroutine PRICEL returns:
 Original cell was already a primitive cell.

 Routine SETGRP: Setting up the symmetry group for a
 simple tetragonal supercell.

 Subroutine GETGRP returns: Found  8 space group operations
 (whereof  8 operations were pure point group operations)
 out of a pool of 16 trial point group operations.

The dynamic configuration has the point symmetry C_4v.

 Subroutine INISYM returns: Found  8 space group operations
 (whereof  8 operations are pure point group operations),
 and found     1 'primitive' translations

 KPOINTS: k-density: 4.0

Automatic generation of k-mesh.
Space group operators:
 irot       det(A)        alpha          n_x          n_y          n_z        tau_x        tau_y        tau_z
    1     1.000000     0.000001     1.000000     0.000000     0.000000     0.000000     0.000000     0.000000
    2     1.000000    90.000000     0.000000     0.000000    -1.000000     0.000000     0.000000     0.000000
    3     1.000000   180.000000     0.000000     0.000000     1.000000     0.000000     0.000000     0.000000
    4     1.000000    90.000000     0.000000     0.000000     1.000000     0.000000     0.000000     0.000000
    5    -1.000000   180.000000     0.000000     1.000000     0.000000     0.000000     0.000000     0.000000
    6    -1.000000   180.000000     0.707107     0.707107     0.000000     0.000000     0.000000     0.000000
    7    -1.000000   180.000000     1.000000     0.000000     0.000000     0.000000     0.000000     0.000000
    8    -1.000000   180.000000     0.707107    -0.707107     0.000000     0.000000     0.000000     0.000000

 Subroutine IBZKPT returns following result:

 Found     10 irreducible k-points:

 Following reciprocal coordinates:
            Coordinates               Weight
  0.000000  0.000000  0.000000      1.000000
  0.142857  0.000000  0.000000      4.000000
  0.285714  0.000000  0.000000      4.000000
  0.428571  0.000000  0.000000      4.000000
  0.142857  0.142857  0.000000      4.000000
  0.285714  0.142857  0.000000      8.000000
  0.428571  0.142857  0.000000      8.000000
  0.285714  0.285714  0.000000      4.000000
  0.428571  0.285714  0.000000      8.000000
  0.428571  0.428571  0.000000      4.000000

 Following cartesian coordinates:
            Coordinates               Weight
  0.000000  0.000000  0.000000      1.000000
  0.036195  0.000000  0.000000      4.000000
  0.072391  0.000000  0.000000      4.000000
  0.108586  0.000000  0.000000      4.000000
  0.036195  0.036195  0.000000      4.000000
  0.072391  0.036195  0.000000      8.000000
  0.108586  0.036195  0.000000      8.000000
  0.072391  0.072391  0.000000      4.000000
  0.108586  0.072391  0.000000      8.000000
  0.108586  0.108586  0.000000      4.000000

 SYSTEM =  unknown system
 POSCAR =   O Sr Ti

 Startparameter for this run:
   NWRITE =      2    write-flag & timer
   PREC   = normal    normal or accurate (medium, high low for compatibility)
   ISTART =      0    job   : 0-new  1-cont  2-samecut
   ICHARG =      2    charge: 1-file 2-atom 10-const
   ISPIN  =      1    spin polarized calculation?
   LNONCOLLINEAR =      F non collinear calculations
   LSORBIT =      F    spin-orbit coupling
   INIWAV =      1    electr: 0-lowe 1-rand  2-diag
   LASPH  =      F    aspherical Exc in radial PAW
   METAGGA=      F    non-selfconsistent MetaGGA calc.

 Electronic Relaxation 1
   ENCUT  =  500.0 eV  36.75 Ry    6.06 a.u.   7.20  7.20 47.06*2*pi/ulx,y,z
   ENINI  =  500.0     initial cutoff
   ENAUG  =  605.4 eV  augmentation charge cutoff
   NELM   =     60;   NELMIN=  4; NELMDL=  0     # of ELM steps
   EDIFF  = 0.1E-04   stopping-criterion for ELM
   LREAL  =      T    real-space projection
   NLSPLINE    = F    spline interpolate recip. space projectors
   LCOMPAT=      F    compatible to vasp.4.4
   GGA_COMPAT  = T    GGA compatible to vasp.4.4-vasp.4.6
   LMAXPAW     = -100 max onsite density
   LMAXMIX     =    2 max onsite mixed and CHGCAR
   VOSKOWN=      0    Vosko Wilk Nusair interpolation
   ROPT   =   -0.00050  -0.00050  -0.00050
 Ionic relaxation
   EDIFFG = -.5E-01   stopping-criterion for IOM
   NSW    =     50    number of steps for IOM
   NBLOCK =      1;   KBLOCK =     50    inner block; outer block
   IBRION =      1    ionic relax: 0-MD 1-quasi-New 2-CG
   NFREE  =      0    steps in history (QN), initial steepest desc. (CG)
   ISIF   =      2    stress and relaxation
[...]
   -.458E-14 0.188E-13 0.108E+04   0.198E-13 0.163E-13 -.108E+04   0.000E+00 0.000E+00 0.202E-01   -.101E-13 0.369E-13 0.108E-02
   -.101E-14 0.272E-13 -.361E+03   0.200E-13 0.162E-13 0.361E+03   0.000E+00 0.000E+00 0.106E+00   -.205E-13 0.788E-14 -.795E-03
   -.699E-14 -.435E-13 -.181E+04   0.188E-13 0.155E-13 0.181E+04   0.424E-21 0.000E+00 -.778E+00   -.875E-14 -.674E-14 -.353E-02
   0.218E-14 0.857E-13 0.722E+03   -.872E-15 0.828E-14 -.722E+03   0.000E+00 0.000E+00 -.358E+00   0.265E-14 -.246E-14 0.116E-02
   0.760E-14 -.992E-13 0.144E+03   -.428E-15 0.798E-14 -.144E+03   0.000E+00 -.106E-21 -.882E-01   -.108E-14 -.805E-16 -.954E-04
   0.581E-14 -.252E-13 -.433E+03   -.469E-15 0.799E-14 0.433E+03   0.000E+00 0.000E+00 0.139E-02   0.110E-14 0.536E-14 -.681E-03
   0.320E-14 0.000E+00 -.102E+04   -.675E-15 0.746E-14 0.102E+04   0.000E+00 0.318E-21 0.135E+01   0.195E-14 -.196E-14 0.288E-03
   0.131E-11 0.379E-12 -.275E+01   0.288E-13 -.634E-16 0.114E-12   -.424E-21 -.236E-20 0.279E+01   0.434E-13 0.108E-12 0.591E-02

 POSITION                                       TOTAL-FORCE (eV/Angst)
      1.97342      1.97342      6.00000         0.000000      0.000000     -0.676359
      1.97342      0.00000      7.97342        -0.000000      0.000000     -0.005749
      0.00000      1.97342      7.97342         0.000000      0.000000     -0.005749
      1.97342      1.97342      9.94685         0.000000      0.000000      0.359579
      1.97342      0.00000     11.92027         0.000000      0.000000      0.060592
      0.00000      1.97342     11.92027         0.000000      0.000000      0.060592
      1.97342      1.97342     13.89369         0.000000      0.000000      0.306685
      1.97342      0.00000     15.86712         0.000000      0.000000      0.036466
      0.00000      1.97342     15.86712         0.000000      0.000000      0.036466
      1.97342      1.97342     17.84054         0.000000      0.000000      1.002169
      1.97342      0.00000     19.81396         0.000000      0.000000      0.386858
      0.00000      1.97342     19.81396         0.000000     -0.000000      0.386858
      0.00000      0.00000      6.00000         0.000000      0.000000      1.345815
      0.00000      0.00000      9.94685         0.000000      0.000000     -0.008242
      0.00000      0.00000     13.89369         0.000000      0.000000     -0.061540
      0.00000      0.00000     17.84054         0.000000      0.000000      0.630588
      1.97342      1.97342      7.97342         0.000000      0.000000     -1.007822
      1.97342      1.97342     11.92027         0.000000     -0.000000     -0.317784
      1.97342      1.97342     15.86712         0.000000      0.000000     -0.357999
      1.97342      1.97342     19.81396         0.000000      0.000000     -2.171421
    total drift:                                0.000000      0.000000      0.040676

  FREE ENERGIE OF THE ION-ELECTRON SYSTEM (eV)
  free  energy   TOTEN  =      -156.65403315 eV

  energy  without entropy=     -156.65401394  energy(sigma->0) =     -156.65402354

 Quasi-Newton relaxation of ions (Broydens 2nd method)
  g(Force)  = 0.490E+00   g(Stress)= 0.000E+00

 Reset! Starting new Quasi-Newton update for ions

[...]

 d Force = 0.1881711E+00[-0.114E+00, 0.490E+00]  d Energy = 0.2022041E+00-0.140E-01
 d Force =-0.3140609E+02[-0.318E+02,-0.310E+02]  d Ewald  =-0.3137962E+02-0.265E-01

[...]

 retain information from N=  1 steps
 eigenvalues of (default step * inverse Hessian matrix)
  average eigenvalue of G=   0.5943
 eigenvalue spectrum of G is  0.5943

[...]

 d Force = 0.4778073E-01[ 0.213E-01, 0.742E-01]  d Energy = 0.4821954E-01-0.439E-03
 d Force =-0.3301408E+02[-0.332E+02,-0.329E+02]  d Ewald  =-0.3301518E+02 0.110E-02

[...]

 d Force = 0.1146547E-01[ 0.491E-02, 0.180E-01]  d Energy = 0.1053665E-01 0.929E-03
 d Force =-0.3568279E+02[-0.358E+02,-0.356E+02]  d Ewald  =-0.3568335E+02 0.566E-03

[...]

 d Force = 0.3692043E-02[-0.219E-04, 0.741E-02]  d Energy = 0.3509741E-02 0.182E-03
 d Force =-0.1834630E+02[-0.184E+02,-0.183E+02]  d Ewald  =-0.1834652E+02 0.225E-03

[...]

 real space projection operators:
  max/ min on nodes  :       1008.55        966.14

[...]

 eigenvalue-minimisations  :  1446
 total energy-change (2. order) : 0.9201969E-05  (-0.1264885E-04)
 number of electron     127.9999797 magnetization
 augmentation part       13.6168505 magnetization

 Broyden mixing:
  rms(total) = 0.68755E-03    rms(broyden)= 0.68610E-03
  rms(prec ) = 0.71819E-03
  weight for this iteration     100.00

 eigenvalues of (default mixing * dielectric matrix)
  average eigenvalue GAMMA=   1.6556
  8.2758  7.0789  5.4096  3.5519  3.5519  2.9768  2.8451  2.8451  2.5191  2.5191
  2.7617  2.6377  2.5282  2.5282  2.5768  2.5206  2.3238  2.3238  2.0744  2.0744
  1.8789  1.8789  1.9614  1.7802  1.5816  1.5816  1.6854  1.6854  1.2509  1.2509
  1.3943  1.3943  1.2640  1.2640  0.8416  0.8416  1.1143  1.1143  1.1514  1.1514
  1.3237  0.5152  0.5854  0.7521  0.7521  0.6282  0.6282  0.9509  0.9509  0.6486
  1.0291  1.0291  1.1434  1.1434  1.1579  1.0671  1.0671  0.8634  0.8634  1.0952
  0.7429  0.8444  0.8444  0.9879  0.9879  0.9925  0.9925  0.9461  0.9461  0.8051
  0.8492  0.8492  0.9796  0.8701  0.8701  0.9062  0.8840

[...]

--------------------------------------- Iteration      8(   6)  ---------------------------------------

 eigenvalue-minimisations  :   875
 total energy-change (2. order) :-0.4191543E-05  (-0.1530202E-05)
 number of electron     127.9999797 magnetization
 augmentation part       13.6168505 magnetization

 Free energy of the ion-electron system (eV)
  alpha Z        PSCENC =       439.36635759
  Ewald energy   TEWEN  =     24180.74766470
  -Hartree energ DENC   =    -32991.59247092
  -exchange      EXHF   =         0.00000000
  -V(xc)+E(xc)   XCENC  =       342.03058616
  PAW double counting   =      6167.03872491    -5996.99195839
  entropy T*S    EENTRO =        -0.00092597
  eigenvalues    EBANDS =     -1234.88961521
  atomic energy  EATOM  =      8937.26825017
  Solvation  Ediel_sol  =         0.00000000
  free energy    TOTEN  =      -157.02338695 eV

  energy without entropy =     -157.02246099  energy(sigma->0) =     -157.02292397

 average (electrostatic) potential at core
  the test charge radii are     0.7215  1.1929  1.2598
  (the norm of the test charge is              1.0000)
       1 -73.9123       2 -74.4940       3 -74.4940       4 -74.0600       5 -74.1690
       6 -74.1690       7 -74.1599       8 -73.9807       9 -73.9807      10 -74.4045
      11 -73.4751      12 -73.4751      13 -40.2297      14 -39.5045      15 -39.2928
      16 -38.9566      17 -30.1439      18 -30.0344      19 -29.9629      20 -29.6786

 E-fermi :   0.6981     XC(G=0):  -7.2413     alpha+bet : -7.4859

[...]

 k-point    10 :       0.4286    0.4286    0.0000
  band No.  band energies     occupation
      1     -34.1096      2.00000
      2     -33.3840      2.00000
      3     -33.1750      2.00000
      4     -32.8476      2.00000
      5     -17.5677      2.00000
      6     -17.4757      2.00000
      7     -17.2803      2.00000
      8     -17.1022      2.00000
      9     -16.9567      2.00000
     10     -16.8304      2.00000
     11     -16.7865      2.00000
     12     -16.6386      2.00000
     13     -16.6279      2.00000
     14     -16.4561      2.00000
     15     -16.3165      2.00000
     16     -16.1254      2.00000
     17     -16.1023      2.00000
     18     -15.9640      2.00000
     19     -15.8501      2.00000
     20     -15.5414      2.00000
     21     -15.4142      2.00000
     22     -15.3988      2.00000
     23     -15.2612      2.00000
     24     -15.1037      2.00000
     25     -15.0967      2.00000
     26     -14.9164      2.00000
     27     -14.7111      2.00000
     28     -14.6797      2.00000
     29      -5.1762      2.00000
     30      -4.9286      2.00000
     31      -4.8561      2.00000
     32      -4.7856      2.00000
     33      -4.6867      2.00000
     34      -4.5290      2.00000
     35      -4.4929      2.00000
     36      -4.3766      2.00000
     37      -4.3131      2.00000
     38      -4.1843      2.00000
     39      -4.1077      2.00000
     40      -4.0445      2.00000
     41      -4.0344      2.00000
     42      -3.9150      2.00000
     43      -3.8410      2.00000
     44      -3.7591      2.00000
     45      -3.7374      2.00000
     46      -3.5558      2.00000
     47      -3.5046      2.00000
     48      -3.3336      2.00000
     49      -2.9678      2.00000
     50      -2.7762      2.00000
     51      -2.7250      2.00000
     52      -2.0109      2.00000
     53      -1.7962      2.00000
     54      -1.7735      2.00000
     55      -1.4070      2.00000
     56      -1.3877      2.00000
     57      -1.1355      2.00000
     58      -0.9804      2.00000
     59      -0.9374      2.00000
     60      -0.6544      2.00000
     61      -0.6239      2.00000
     62      -0.5648      2.00000
     63      -0.3658      2.00000
     64       0.3576      1.98392
     65       2.9251      0.00000
     66       2.9430      0.00000
     67       3.0939      0.00000
     68       3.1219      0.00000
     69       3.1313      0.00000
     70       3.3243      0.00000
     71       3.3606      0.00000
     72       3.3955      0.00000
     73       3.5562      0.00000
     74       3.5782      0.00000
     75       3.6599      0.00000
     76       3.8895      0.00000

 soft charge-density along one line, spin component           1
         0         1         2         3         4         5         6         7         8         9
 total charge-density along one line

------------------------ aborting loop because EDIFF is reached ----------------------------------------

  FORCE on cell =-STRESS in cart. coord.  units (eV):
  Direction    XX          YY          ZZ          XY          YZ          ZX
  Alpha Z   439.36636   439.36636   439.36636
  Ewald   29256.16766 29256.16766-34331.60305    -0.00000     0.00000     0.00000
  Hartree 31772.41798 31772.41798-30553.20362    -0.00000    -0.00000    -0.00000
  E(xc)    -578.31890  -578.31890  -578.38355    -0.00000     0.00000     0.00000
  Local  -62758.17067-62758.17067 63159.88077     0.00000     0.00000     0.00000
  n-local  -489.13310  -467.75598  -481.11968    -1.51555     0.00000     0.00000
  augment   115.80581   115.80581   115.38852    -0.00000    -0.00000     0.00000
  Kinetic  2206.92353  2248.20284  2228.93591    -9.32529    -0.00002     0.00000
  Fock        0.00000     0.00000     0.00000     0.00000     0.00000     0.00000
  Total      -3.61312    -3.61312    -0.73834     0.00000     0.00000     0.00000
  in kB     -14.39587   -14.39587    -2.94180     0.00000     0.00000     0.00000

 VOLUME and BASIS-vectors are now :
  energy-cutoff  :      500.00
  volume of cell :      402.12
      direct lattice vectors                 reciprocal lattice vectors
     3.946846342  0.000000000  0.000000000     0.253366844  0.000000000  0.000000000
     0.000000000  3.946846342  0.000000000     0.000000000  0.253366844  0.000000000
     0.000000000  0.000000000 25.813962196     0.000000000  0.000000000  0.038738726

  length of vectors
     3.946846342  3.946846342 25.813962196     0.253366844  0.253366844  0.038738726

 FORCES acting on ions
    electron-ion (+dipol)            ewald-force                    non-local-force                 convergence-correction
   0.172E-12 0.125E-11 0.156E+04   -.270E-14 0.435E-14 -.157E+04   -.199E-22 0.000E+00 0.121E+02   0.222E-13 0.341E-13 -.494E-02
   0.135E-12 0.936E-13 0.107E+04   -.888E-14 -.228E-14 -.107E+04   -.662E-23 0.000E+00 -.220E+01   0.338E-13 -.289E-13 0.853E-04
   -.175E-13 0.101E-12 0.107E+04   0.515E-14 -.154E-13 -.107E+04   0.331E-23 0.000E+00 -.220E+01   0.202E-13 -.304E-13 0.853E-04
   0.157E-12 0.335E-12 0.657E+03   -.221E-13 0.158E-14 -.659E+03   -.132E-22 0.000E+00 0.257E+01   0.399E-13 -.553E-13 0.201E-02
   0.157E-12 -.252E-13 0.210E+03   -.120E-13 -.390E-14 -.209E+03   -.662E-23 0.000E+00 -.728E+00   -.127E-13 -.126E-12 0.503E-02
   -.617E-14 -.144E-12 0.210E+03   0.126E-13 -.163E-14 -.209E+03   0.000E+00 0.000E+00 -.728E+00   -.513E-13 -.924E-13 0.503E-02
   0.164E-12 0.742E-12 -.213E+03   -.680E-15 0.191E-14 0.212E+03   0.000E+00 0.000E+00 0.168E+01   0.699E-13 0.586E-13 0.983E-02
   0.161E-12 0.942E-13 -.655E+03   -.158E-14 -.802E-14 0.656E+03   0.000E+00 -.662E-23 -.120E+01   0.403E-14 0.103E-12 0.555E-02
   -.705E-14 0.101E-12 -.655E+03   -.606E-14 0.871E-15 0.656E+03   0.331E-23 0.000E+00 -.120E+01   -.491E-13 0.329E-14 0.555E-02
   0.151E-12 -.144E-13 -.105E+04   -.686E-14 -.823E-14 0.104E+04   0.000E+00 0.000E+00 0.568E+01   0.390E-13 -.315E-13 -.141E-02
   0.175E-12 -.174E-12 -.151E+04   -.907E-14 0.197E-14 0.151E+04   0.000E+00 0.000E+00 -.504E+01   -.103E-13 -.120E-12 -.305E-02
   -.120E-13 0.846E-13 -.151E+04   0.527E-14 0.123E-14 0.151E+04   0.000E+00 0.000E+00 -.504E+01   -.311E-13 -.634E-13 -.305E-02
   0.282E-15 -.137E-12 0.249E+04   0.128E-13 0.920E-14 -.249E+04   -.827E-24 0.000E+00 -.474E+01   0.409E-13 0.101E-12 0.194E-02
   0.206E-15 -.464E-13 0.107E+04   0.370E-13 0.882E-14 -.107E+04   -.662E-23 0.132E-22 -.915E+00   -.323E-13 -.237E-13 0.246E-02
   -.599E-15 -.900E-13 -.370E+03   0.869E-14 -.229E-14 0.370E+03   0.000E+00 0.000E+00 -.497E+00   -.803E-15 0.143E-12 0.110E-01
   0.129E-14 -.115E-12 -.180E+04   0.214E-13 0.372E-14 0.180E+04   0.000E+00 0.529E-22 -.211E+01   0.977E-14 0.319E-13 -.732E-02
   0.192E-14 0.477E-13 0.721E+03   0.577E-14 -.254E-14 -.721E+03   0.000E+00 0.000E+00 -.357E+00   0.274E-13 0.885E-14 0.338E-03
   0.487E-14 -.154E-12 0.143E+03   -.729E-14 0.216E-14 -.143E+03   0.662E-23 0.000E+00 -.111E+00   0.320E-13 0.309E-13 0.203E-02
   0.973E-14 0.283E-12 -.432E+03   0.592E-14 0.113E-13 0.432E+03   0.000E+00 0.000E+00 -.865E-01   0.718E-14 -.359E-13 0.498E-02
   0.370E-14 -.103E-12 -.102E+04   -.852E-14 -.286E-14 0.101E+04   0.000E+00 -.265E-22 0.115E+01   -.763E-14 0.345E-13 -.265E-02
   0.125E-11 0.212E-11 0.388E+01   0.288E-13 -.634E-16 0.796E-12   -.405E-22 0.331E-22 -.399E+01   0.151E-12 -.586E-13 0.335E-01

 POSITION                                       TOTAL-FORCE (eV/Angst)
      1.97342      1.97342      5.96263        -0.000000     -0.000000      0.040508
      1.97342      0.00000      7.93437        -0.000000     -0.000000      0.021021
     -0.00000      1.97342      7.93437        -0.000000     -0.000000      0.021021
      1.97342      1.97342      9.94091        -0.000000      0.000000     -0.023191
      1.97342      0.00000     11.91815        -0.000000     -0.000000     -0.030214
      0.00000      1.97342     11.91815        -0.000000     -0.000000     -0.030214
      1.97342      1.97342     13.89328         0.000000      0.000000      0.001394
      1.97342     -0.00000     15.86437        -0.000000     -0.000000     -0.016891
     -0.00000      1.97342     15.86437        -0.000000     -0.000000     -0.016891
      1.97342      1.97342     17.84709        -0.000000      0.000000     -0.030978
      1.97342     -0.00000     19.80457        -0.000000     -0.000000      0.016998
     -0.00000      1.97342     19.80457        -0.000000     -0.000000      0.016998
     -0.00000      0.00000      6.18551         0.000000     -0.000000     -0.029337
     -0.00000     -0.00000      9.99051        -0.000000     -0.000000      0.038436
     -0.00000     -0.00000     13.92102        -0.000000     -0.000000      0.045398
      0.00000      0.00000     17.98568        -0.000000     -0.000000      0.016006
      1.97342      1.97342      7.88480        -0.000000     -0.000000     -0.049786
      1.97342      1.97342     11.89422        -0.000000     -0.000000     -0.011329
      1.97342      1.97342     15.83246        -0.000000     -0.000000      0.018553
      1.97342      1.97342     19.70544        -0.000000     -0.000000      0.002499
    total drift:                                0.000000      0.000000     -0.079234

  FREE ENERGIE OF THE ION-ELECTRON SYSTEM (eV)
  free  energy   TOTEN  =      -157.02338695 eV

  energy  without entropy=     -157.02246099  energy(sigma->0) =     -157.02292397

 d Force = 0.5201981E-03[ 0.993E-04, 0.941E-03]  d Energy = 0.4954312E-03 0.248E-04
 d Force = 0.7906334E+01[ 0.790E+01, 0.791E+01]  d Ewald  = 0.7906336E+01-0.172E-05

 Quasi-Newton relaxation of ions (Broydens 2nd method)
  g(Force)  = 0.705E-03   g(Stress)= 0.000E+00

 retain information from N=  6 steps
 eigenvalues of (default step * inverse Hessian matrix)
  average eigenvalue of G=   1.5970
 eigenvalue spectrum of G is  3.2186  3.2186  0.8642  0.8642  0.4594  0.9570

 reached required accuracy - stopping structural energy minimisation