 vasp.5.4.4.18Apr17-6-g9f103f2a35 (build Jun 30 2017 11:15:00) complex

 executed on    STALLO_VASP_5.4.4 date 2019.11.08  15:44:25

 INCAR:
 POTCAR:   PAW_PBE O 08Apr2002
 POTCAR:   PAW_PBE Sr_sv 07Sep2000
 POTCAR:   PAW_PBE Ti 08Apr2002
 POTCAR:   PAW_PBE O 08Apr2002
   VRHFIN =O: s2p4

   TITEL  = PAW_PBE O 08Apr2002
   POMASS =   16.000; ZVAL   =    6.000    mass and valenz
   ENMAX  =  400.000; ENMIN  =  300.000 eV
   QCUT   =   -5.520; QGAM   =   11.041    optimization parameters

   Description
     l     E      TYP  RCUT    TYP  RCUT
     0   .000     23  1.200
     0  -.700     23  1.200
     1   .000     23  1.520
     1   .600     23  1.520
     2   .000      7  1.500

 POTCAR:   PAW_PBE Sr_sv 07Sep2000
   VRHFIN =Sr: 4s4p5s

   TITEL  = PAW_PBE Sr_sv 07Sep2000
   POMASS =   87.620; ZVAL   =   10.000    mass and valenz
   ENMAX  =  229.282; ENMIN  =  171.961 eV
   QCUT   =   -4.105; QGAM   =    8.210    optimization parameters

[...]

 POTCAR:   PAW_PBE Ti 08Apr2002
   VRHFIN =Ti: d3 s1

   TITEL  = PAW_PBE Ti 08Apr2002
   POMASS =   47.880; ZVAL   =    4.000    mass and valenz
   ENMAX  =  178.330; ENMIN  =  133.747 eV
   QCUT   =   -3.620; QGAM   =    7.241    optimization parameters

   Description
     l     E      TYP  RCUT    TYP  RCUT
     2   .000     23  2.800
     2   .000     23  2.800
     0   .000     23  2.800
     0  1.500     23  2.800
     1  -.400     23  2.800
     3   .000      7   .000

 Optimization of the real space projectors (new method)

 maximal supplied QI-value         = 24.76
 optimisation between [QCUT,QGAM] = [ 11.39, 22.77] = [ 36.31,145.25] Ry
 Optimized for a Real-space Cutoff    1.00 Angstroem

   l    n(q)    QCUT    max X(q) W(low)/X(q) W(high)/X(q)  e(spline)
   0      7    11.387     4.192    0.89E-04    0.26E-03    0.19E-07
   0      7    11.387     8.473    0.42E-03    0.14E-02    0.17E-06
   1      6    11.387     2.474    0.11E-03    0.26E-03    0.18E-07
   1      6    11.387     3.912    0.39E-03    0.87E-03    0.15E-06
 Optimization of the real space projectors (new method)

[...]

   l    n(q)    QCUT    max X(q) W(low)/X(q) W(high)/X(q)  e(spline)
   0     11    11.338     6.584    0.15E-04    0.24E-05    0.13E-07
   0     11    11.338    11.383    0.41E-04    0.15E-04    0.15E-06
   1     10    11.338     3.802    0.90E-05    0.33E-06    0.26E-07
   1     10    11.338    39.081    0.19E-03    0.53E-04    0.42E-06
   2     10    11.338     4.950    0.16E-04    0.40E-04    0.77E-07
   2     10    11.338    88.754    0.21E-03    0.41E-03    0.42E-06
 Optimization of the real space projectors (new method)

 maximal supplied QI-value         = 13.42
 optimisation between [QCUT,QGAM] = [ 11.40, 22.81] = [ 36.42,145.68] Ry
 Optimized for a Real-space Cutoff    1.56 Angstroem

   l    n(q)    QCUT    max X(q) W(low)/X(q) W(high)/X(q)  e(spline)
   2     10    11.404     5.474    0.19E-04    0.47E-04    0.83E-07
   2     10    11.404    20.898    0.26E-03    0.65E-03    0.73E-06
   0     11    11.404    23.292    0.21E-04    0.14E-04    0.20E-07
   0     11    11.404    27.738    0.14E-03    0.16E-03    0.29E-06
   1     10    11.404     9.492    0.33E-04    0.56E-04    0.16E-06
 PAW_PBE O 08Apr2002                    :
 PAW_PBE Sr_sv 07Sep2000                :
 PAW_PBE Ti 08Apr2002                   :

 POSCAR:  O Sr Ti
  positions in direct lattice
  velocities in cartesian coordinates
 exchange correlation table for  LEXCH =        8
   RHO(1)=    0.500       N(1)  =     2000
   RHO(2)=  100.500       N(2)  =     4000

 ion  position               nearest neighbor table
   1  0.199  0.500  0.213-  17 1.78  13 2.51  13 2.51
   2  0.534  0.000  0.252-  17 2.02  17 2.02  13 2.55  14 3.02  13 3.03
   3  0.296  0.500  0.328-  17 1.84  18 2.09  14 2.59  14 2.59  13 3.07  13 3.07
   4  0.794  0.500  0.310-  18 1.87  17 2.23  13 2.57  13 2.57  14 3.07  14 3.07
   5  0.014  0.000  0.379-  18 1.98  18 1.98  14 2.68  15 2.76  13 2.81  14 2.90
   6  0.737  0.500  0.433-  18 1.88  19 2.14  14 2.67  14 2.67  15 2.86  15 2.86
   7  0.237  0.500  0.447-  19 1.88  18 2.14  15 2.67  15 2.67  14 2.86  14 2.86
   8  0.514  0.000  0.501-  19 1.98  19 1.98  15 2.68  14 2.76  16 2.81  15 2.90
   9  0.294  0.500  0.569-  19 1.87  20 2.23  16 2.57  16 2.57  15 3.07  15 3.07
  10  0.796  0.500  0.552-  20 1.84  19 2.09  15 2.59  15 2.59  16 3.07  16 3.07
  11  0.034  0.000  0.628-  20 2.02  20 2.02  16 2.55  15 3.02  16 3.03
  12  0.699  0.500  0.666-  20 1.78  16 2.51  16 2.51
  13  0.991  0.000  0.257-   1 2.51   1 2.51   2 2.55   4 2.57   4 2.57   5 2.81   2 3.03   3 3.07
                             3 3.07  17 3.27  17 3.27  18 3.41  18 3.41  17 3.57  17 3.57  14 4.00
  14  0.494  0.000  0.382-   3 2.59   3 2.59   6 2.67   6 2.67   5 2.68   8 2.76   7 2.86   7 2.86
                             5 2.90   2 3.02   4 3.07   4 3.07  18 3.37  18 3.37  19 3.42  19 3.42
  15  0.994  0.000  0.498-  10 2.59  10 2.59   7 2.67   7 2.67   8 2.68   5 2.76   6 2.86   6 2.86
                             8 2.90  11 3.02   9 3.07   9 3.07  19 3.37  19 3.37  18 3.42  18 3.42
  16  0.491  0.000  0.622-  12 2.51  12 2.51  11 2.55   9 2.57   9 2.57   8 2.81  11 3.03  10 3.07
                            10 3.07  20 3.27  20 3.27  19 3.41  19 3.41  20 3.57  20 3.57  15 4.00
  17  0.458  0.500  0.259-   1 1.78   3 1.84   2 2.02   2 2.02   4 2.23  13 3.27  13 3.27  14 3.48
                            14 3.48  13 3.57  13 3.57
  18  0.983  0.500  0.377-   4 1.87   6 1.88   5 1.98   5 1.98   3 2.09   7 2.14  14 3.37  14 3.37
                            13 3.41  13 3.41  15 3.42  15 3.42  14 3.47  14 3.47
  19  0.483  0.500  0.502-   9 1.87   7 1.88   8 1.98   8 1.98  10 2.09   6 2.14  15 3.37  15 3.37
                            16 3.41  16 3.41  14 3.42  14 3.42  15 3.47  15 3.47
  20  0.958  0.500  0.621-  12 1.78  10 1.84  11 2.02  11 2.02   9 2.23  16 3.27  16 3.27  15 3.48
                            15 3.48  16 3.57  16 3.57

  LATTYP: Found a simple orthorhombic cell.
 ALAT       =     3.9468463416
 B/A-ratio  =     1.4142135624
 C/A-ratio  =     5.8688292471

  Lattice vectors:

 A1 = (   0.0000000000,  -3.9468463416,   0.0000000000)
 A2 = (  -5.5816836249,   0.0000000000,   0.0000000000)
 A3 = (   0.0000000000,   0.0000000000, -23.1633672436)

Analysis of symmetry for initial positions (statically):
 Subroutine PRICEL returns:
 Original cell was already a primitive cell.

 Routine SETGRP: Setting up the symmetry group for a
 simple orthorhombic supercell.

 Subroutine GETGRP returns: Found  4 space group operations
 (whereof  2 operations were pure point group operations)
 out of a pool of  8 trial point group operations.

The static configuration has the point symmetry C_1h.
 The point group associated with its full space group is C_2v.

Analysis of symmetry for dynamics (positions and initial velocities):
 Subroutine PRICEL returns:
 Original cell was already a primitive cell.

 Routine SETGRP: Setting up the symmetry group for a
 simple orthorhombic supercell.

 Subroutine GETGRP returns: Found  4 space group operations
 (whereof  2 operations were pure point group operations)
 out of a pool of  8 trial point group operations.

The dynamic configuration has the point symmetry C_1h.
 The point group associated with its full space group is C_2v.

 Subroutine INISYM returns: Found  4 space group operations
 (whereof  2 operations are pure point group operations),
 and found     1 'primitive' translations

 KPOINTS: k-density: 4.0

Automatic generation of k-mesh.
Space group operators:
 irot       det(A)        alpha          n_x          n_y          n_z        tau_x        tau_y        tau_z
    1     1.000000     0.000000     1.000000     0.000000     0.000000     0.000000     0.000000     0.000000
    2    -1.000000   180.000000     0.000000     1.000000     0.000000     0.000000     0.000000     0.000000
    3    -1.000000   180.000000     0.000000     0.000000     1.000000    -0.500000     0.000000    -0.120485
    4     1.000000   180.000000     1.000000     0.000000     0.000000    -0.500000     0.000000    -0.120485

 Subroutine IBZKPT returns following result:

 Found     12 irreducible k-points:

 Following reciprocal coordinates:
            Coordinates               Weight
  0.000000  0.000000  0.000000      1.000000
  0.200000  0.000000  0.000000      2.000000
  0.400000  0.000000  0.000000      2.000000
  0.000000  0.142857  0.000000      2.000000
  0.200000  0.142857  0.000000      4.000000
  0.400000  0.142857  0.000000      4.000000
  0.000000  0.285714  0.000000      2.000000
  0.200000  0.285714  0.000000      4.000000
  0.400000  0.285714  0.000000      4.000000
  0.000000  0.428571  0.000000      2.000000
  0.200000  0.428571  0.000000      4.000000
  0.400000  0.428571  0.000000      4.000000

 Following cartesian coordinates:
            Coordinates               Weight
  0.000000  0.000000  0.000000      1.000000
  0.035831  0.000000  0.000000      2.000000
  0.071663  0.000000  0.000000      2.000000
  0.000000  0.036195  0.000000      2.000000
  0.035831  0.036195  0.000000      4.000000
  0.071663  0.036195  0.000000      4.000000
  0.000000  0.072391  0.000000      2.000000
  0.035831  0.072391  0.000000      4.000000
  0.071663  0.072391  0.000000      4.000000
  0.000000  0.108586  0.000000      2.000000
  0.035831  0.108586  0.000000      4.000000
  0.071663  0.108586  0.000000      4.000000

 SYSTEM =  unknown system
 POSCAR =   O Sr Ti

 Startparameter for this run:
   NWRITE =      2    write-flag & timer
   PREC   = normal    normal or accurate (medium, high low for compatibility)
   ISTART =      0    job   : 0-new  1-cont  2-samecut
   ICHARG =      2    charge: 1-file 2-atom 10-const
   ISPIN  =      1    spin polarized calculation?
   LNONCOLLINEAR =      F non collinear calculations
   LSORBIT =      F    spin-orbit coupling
   INIWAV =      1    electr: 0-lowe 1-rand  2-diag
   LASPH  =      F    aspherical Exc in radial PAW
   METAGGA=      F    non-selfconsistent MetaGGA calc.

 Electronic Relaxation 1
   ENCUT  =  500.0 eV  36.75 Ry    6.06 a.u.  10.18  7.20 42.23*2*pi/ulx,y,z
   ENINI  =  500.0     initial cutoff
   ENAUG  =  605.4 eV  augmentation charge cutoff
   NELM   =     60;   NELMIN=  4; NELMDL=  0     # of ELM steps
   EDIFF  = 0.1E-05   stopping-criterion for ELM
   LREAL  =      T    real-space projection
   NLSPLINE    = F    spline interpolate recip. space projectors
   LCOMPAT=      F    compatible to vasp.4.4
   GGA_COMPAT  = T    GGA compatible to vasp.4.4-vasp.4.6
   LMAXPAW     = -100 max onsite density
   LMAXMIX     =    2 max onsite mixed and CHGCAR
   VOSKOWN=      0    Vosko Wilk Nusair interpolation
   ROPT   =   -0.00050  -0.00050  -0.00050
 Ionic relaxation
   EDIFFG = 0.1E-04   stopping-criterion for IOM
   NSW    =      0    number of steps for IOM
   NBLOCK =      1;   KBLOCK =      1    inner block; outer block
   IBRION =     -1    ionic relax: 0-MD 1-quasi-New 2-CG
   NFREE  =      0    steps in history (QN), initial steepest desc. (CG)
   ISIF   =      2    stress and relaxation
   IWAVPR =     10    prediction:  0-non 1-charg 2-wave 3-comb
   ISYM   =      2    0-nonsym 1-usesym 2-fastsym
[...]
  Solvation  Ediel_sol  =         0.00000000
  free energy    TOTEN  =      1577.11762148 eV

  energy without entropy =     1577.15038384  energy(sigma->0) =     1577.13400266

[...]

 eigenvalue-minimisations  :  2320
 total energy-change (2. order) :-0.1407458E+04  (-0.1357659E+04)
 number of electron     128.0000000 magnetization
 augmentation part      128.0000000 magnetization

[...]

 Broyden mixing:
  rms(total) = 0.37273E+01    rms(broyden)= 0.37267E+01
  rms(prec ) = 0.40387E+01
  weight for this iteration     100.00

[...]

 eigenvalues of (default mixing * dielectric matrix)
  average eigenvalue GAMMA=   0.7148
  0.7148

[...]

 eigenvalue-minimisations  :  2649
 total energy-change (2. order) : 0.2916819E-04  (-0.1218999E-03)
 number of electron     128.0000009 magnetization
 augmentation part       13.7156799 magnetization

[...]

 Broyden mixing:
  rms(total) = 0.58433E-04    rms(broyden)= 0.58412E-04
  rms(prec ) = 0.63084E-04
  weight for this iteration     100.00

 eigenvalues of (default mixing * dielectric matrix)
  average eigenvalue GAMMA=   1.9008
  9.3693  5.8384  3.6439  2.6686  2.3753  2.0021  1.3489  1.3489  0.8731  0.8731
  1.0583  1.0583  1.0485  1.0485  0.8861  0.8390  0.8390  0.7281  0.7281  0.6436
  0.6973

[...]

--------------------------------------- Iteration      1(  27)  ---------------------------------------

 eigenvalue-minimisations  :  1325
 total energy-change (2. order) :-0.4715439E-06  (-0.7696791E-07)
 number of electron     128.0000009 magnetization
 augmentation part       13.7145600 magnetization

 Free energy of the ion-electron system (eV)
  alpha Z        PSCENC =       346.23006630
  Ewald energy   TEWEN  =     27581.34738013
  -Hartree energ DENC   =    -36117.97370363
  -exchange      EXHF   =         0.00000000
  -V(xc)+E(xc)   XCENC  =       341.25384158
  PAW double counting   =      6186.97829033    -6016.51915922
  entropy T*S    EENTRO =        -0.00000000
  eigenvalues    EBANDS =     -1415.01243659
  atomic energy  EATOM  =      8937.26825017
  Solvation  Ediel_sol  =         0.00000000
  free energy    TOTEN  =      -156.42747092 eV

  energy without entropy =     -156.42747092  energy(sigma->0) =     -156.42747092

 average (electrostatic) potential at core
  the test charge radii are     0.7215  1.1929  1.2598
  (the norm of the test charge is              1.0000)
       1 -75.1944       2 -75.4501       3 -75.9949       4 -75.5794       5 -75.6543
       6 -75.6590       7 -75.6590       8 -75.6543       9 -75.5794      10 -75.9949
      11 -75.4501      12 -75.1944      13 -40.6087      14 -40.7722      15 -40.7722
      16 -40.6087      17 -31.1669      18 -31.4224      19 -31.4224      20 -31.1669

 E-fermi :  -1.5867     XC(G=0):  -5.9130     alpha+bet : -5.8991

 k-point     1 :       0.0000    0.0000    0.0000
  band No.  band energies     occupation
      1     -34.7072      2.00000
      2     -34.6841      2.00000
      3     -34.5535      2.00000
      4     -34.5535      2.00000
      5     -19.2784      2.00000
      6     -19.2369      2.00000
      7     -18.9066      2.00000
      8     -18.6239      2.00000
      9     -18.5711      2.00000
     10     -18.5229      2.00000
     11     -18.4232      2.00000
     12     -18.3415      2.00000
     13     -18.0931      2.00000
     14     -18.0917      2.00000
     15     -17.9122      2.00000
     16     -17.9076      2.00000
     17     -16.7875      2.00000
     18     -16.7543      2.00000
     19     -16.7502      2.00000
     20     -16.7073      2.00000
     21     -16.6960      2.00000
     22     -16.6860      2.00000
     23     -16.5863      2.00000
     24     -16.5848      2.00000
     25     -16.3685      2.00000
     26     -16.3576      2.00000
     27     -15.9299      2.00000
     28     -15.9274      2.00000
     29      -6.2531      2.00000
     30      -6.0707      2.00000
     31      -5.8996      2.00000
     32      -5.5754      2.00000
     33      -5.3409      2.00000
     34      -5.3081      2.00000
     35      -5.0371      2.00000
     36      -4.9718      2.00000
     37      -4.7901      2.00000
     38      -4.7863      2.00000
     39      -4.7606      2.00000
     40      -4.6749      2.00000
     41      -4.5895      2.00000
     42      -4.1411      2.00000
     43      -3.9349      2.00000
     44      -3.8109      2.00000
     45      -3.7841      2.00000
     46      -3.7524      2.00000
     47      -3.7087      2.00000
     48      -3.6674      2.00000
     49      -3.6250      2.00000
     50      -3.5750      2.00000
     51      -3.5102      2.00000
     52      -3.4859      2.00000
     53      -3.4340      2.00000
     54      -3.3996      2.00000
     55      -3.2471      2.00000
     56      -3.1453      2.00000
     57      -2.9898      2.00000
     58      -2.9154      2.00000
     59      -2.8623      2.00000
     60      -2.7960      2.00000
     61      -2.6849      2.00000
     62      -2.5172      2.00000
     63      -2.5094      2.00000
     64      -2.3948      2.00000
     65       0.2319      0.00000
     66       0.4412      0.00000
     67       0.6033      0.00000
     68       0.8499      0.00000
     69       1.1143      0.00000
     70       1.2142      0.00000
     71       1.3822      0.00000
     72       1.5488      0.00000
     73       1.6408      0.00000
     74       2.3879      0.00000
     75       3.8415      0.00000
     76       4.1190      0.00000

[...]

 k-point    12 :       0.4000    0.4286    0.0000
  band No.  band energies     occupation
      1     -34.6797      2.00000
      2     -34.6733      2.00000
      3     -34.5332      2.00000
      4     -34.5332      2.00000
      5     -19.1974      2.00000
      6     -19.0426      2.00000
      7     -18.7532      2.00000
      8     -18.6936      2.00000
      9     -18.5800      2.00000
     10     -18.5433      2.00000
     11     -18.4252      2.00000
     12     -18.3776      2.00000
     13     -18.2025      2.00000
     14     -18.1949      2.00000
     15     -17.9367      2.00000
     16     -17.9258      2.00000
     17     -16.8404      2.00000
     18     -16.7763      2.00000
     19     -16.7328      2.00000
     20     -16.6950      2.00000
     21     -16.5085      2.00000
     22     -16.4769      2.00000
     23     -16.3926      2.00000
     24     -16.3274      2.00000
     25     -16.3093      2.00000
     26     -16.2810      2.00000
     27     -15.8471      2.00000
     28     -15.8455      2.00000
     29      -6.2619      2.00000
     30      -6.2349      2.00000
     31      -6.0894      2.00000
     32      -6.0651      2.00000
     33      -5.8345      2.00000
     34      -5.7982      2.00000
     35      -5.6258      2.00000
     36      -5.5556      2.00000
     37      -5.4649      2.00000
     38      -5.4409      2.00000
     39      -5.1384      2.00000
     40      -5.0971      2.00000
     41      -4.9404      2.00000
     42      -4.9370      2.00000
     43      -4.7544      2.00000
     44      -4.7052      2.00000
     45      -4.6075      2.00000
     46      -4.4751      2.00000
     47      -4.4017      2.00000
     48      -4.3970      2.00000
     49      -4.2066      2.00000
     50      -4.0834      2.00000
     51      -3.4245      2.00000
     52      -3.3721      2.00000
     53      -3.3128      2.00000
     54      -3.2326      2.00000
     55      -3.1559      2.00000
     56      -3.1496      2.00000
     57      -2.8869      2.00000
     58      -2.8142      2.00000
     59      -2.7538      2.00000
     60      -2.7194      2.00000
     61      -2.4876      2.00000
     62      -2.4113      2.00000
     63      -2.1437      2.00000
     64      -2.1311      2.00000
     65       1.0109      0.00000
     66       1.1350      0.00000
     67       1.3550      0.00000
     68       1.4234      0.00000
     69       1.4552      0.00000
     70       1.5443      0.00000
     71       1.5750      0.00000
     72       1.6445      0.00000
     73       1.7465      0.00000
     74       1.8682      0.00000
     75       2.0640      0.00000
     76       2.0763      0.00000

 soft charge-density along one line, spin component           1
         0         1         2         3         4         5         6         7         8         9
 total charge-density along one line

------------------------ aborting loop because EDIFF is reached ----------------------------------------

 total charge

# of ion       s       p       d       tot
    1        1.580   3.408   0.000   4.988
    2        1.562   3.425   0.000   4.987
    3        1.571   3.469   0.000   5.039
    4        1.570   3.448   0.000   5.018
    5        1.566   3.463   0.000   5.029
    6        1.568   3.458   0.000   5.026
    7        1.568   3.458   0.000   5.026
    8        1.566   3.463   0.000   5.029
    9        1.569   3.448   0.000   5.018
   10        1.571   3.469   0.000   5.039
   11        1.562   3.425   0.000   4.987
   12        1.580   3.408   0.000   4.988
   13        2.003   5.799   0.217   8.019
   14        1.998   5.795   0.200   7.993
   15        1.998   5.795   0.200   7.993
   16        2.003   5.799   0.217   8.019
   17        0.558   0.929   2.779   4.266
   18        0.559   1.044   2.668   4.271
   19        0.559   1.044   2.668   4.271
   20        0.558   0.929   2.779   4.266
tot         29.068  68.476  11.729 109.273

  FORCE on cell =-STRESS in cart. coord.  units (eV):
  Direction    XX          YY          ZZ          XY          YZ          ZX
  Alpha Z   346.23007   346.23007   346.23007
  Ewald   32462.99502 32652.96919-37534.63088    -0.00000    -0.00000     0.00000
  Hartree 34753.53156 34877.26987-33512.84585    -0.00000    -0.00000     0.00001
  E(xc)    -578.01659  -576.76484  -579.46965     0.00000    -0.00000    -0.00001
  Local  -68847.09915-69164.64110 69420.66216     0.00000    -0.00000    -0.00001
  n-local  -485.81443  -482.90995  -481.91242     0.03784     0.00001     0.02878
  augment   116.19862   115.48231   115.47262     0.00000     0.00000     0.00001
  Kinetic  2235.39940  2227.66110  2226.12518     0.42491     0.00000    -0.00029
  Fock        0.00000     0.00000     0.00000     0.00000     0.00000     0.00000
  Total       3.42450    -4.70335    -0.36877     0.00000     0.00000     0.00000
  in kB      10.75203   -14.76728    -1.15783     0.00000     0.00000     0.00000

 VOLUME and BASIS-vectors are now :
  energy-cutoff  :      500.00
  volume of cell :      510.29
      direct lattice vectors                 reciprocal lattice vectors
     5.581683625  0.000000000  0.000000000     0.179157413  0.000000000  0.000000000
     0.000000000  3.946846342  0.000000000     0.000000000  0.253366844  0.000000000
     0.000000000  0.000000000 23.163367244     0.000000000  0.000000000  0.043171616

  length of vectors
     5.581683625  3.946846342 23.163367244     0.179157413  0.253366844  0.043171616

 FORCES acting on ions
    electron-ion (+dipol)            ewald-force                    non-local-force                 convergence-correction
   0.179E+02 0.994E-06 0.142E+04   -.275E+02 0.121E-06 -.143E+04   0.967E+01 0.000E+00 0.141E+02   -.219E-03 0.177E-11 0.219E-03
   -.177E+02 0.422E-07 0.124E+04   0.193E+02 -.208E-06 -.124E+04   -.159E+01 0.000E+00 0.272E+01   0.173E-03 -.266E-11 0.302E-03
   -.583E+01 0.987E-06 0.743E+03   0.402E+01 0.153E-06 -.735E+03   0.181E+01 0.000E+00 -.771E+01   0.454E-04 0.525E-11 0.410E-03
   0.342E+02 0.965E-06 0.885E+03   -.388E+02 0.162E-06 -.890E+03   0.462E+01 0.000E+00 0.570E+01   -.480E-04 0.425E-11 0.727E-04
   0.710E+01 0.485E-07 0.415E+03   -.599E+01 -.266E-06 -.415E+03   -.111E+01 0.000E+00 -.433E-02   0.102E-03 -.374E-11 0.828E-04
   0.803E+01 0.974E-06 0.415E+02   -.119E+02 0.161E-06 -.372E+02   0.387E+01 0.000E+00 -.430E+01   -.534E-04 0.435E-11 0.113E-03
   0.803E+01 0.974E-06 -.415E+02   -.119E+02 0.161E-06 0.372E+02   0.387E+01 0.000E+00 0.430E+01   -.535E-04 0.439E-11 -.113E-03
   0.710E+01 0.485E-07 -.415E+03   -.599E+01 -.266E-06 0.415E+03   -.111E+01 0.000E+00 0.433E-02   0.102E-03 -.375E-11 -.828E-04
   0.342E+02 0.965E-06 -.885E+03   -.388E+02 0.162E-06 0.890E+03   0.462E+01 0.000E+00 -.570E+01   -.481E-04 0.427E-11 -.727E-04
   -.583E+01 0.987E-06 -.743E+03   0.402E+01 0.153E-06 0.735E+03   0.181E+01 0.000E+00 0.771E+01   0.454E-04 0.525E-11 -.410E-03
   -.177E+02 0.422E-07 -.124E+04   0.193E+02 -.208E-06 0.124E+04   -.159E+01 0.000E+00 -.272E+01   0.173E-03 -.262E-11 -.302E-03
   0.179E+02 0.994E-06 -.142E+04   -.275E+02 0.121E-06 0.143E+04   0.967E+01 0.000E+00 -.141E+02   -.219E-03 0.178E-11 -.219E-03
   0.320E+02 0.268E-07 0.199E+04   -.325E+02 -.225E-06 -.199E+04   0.480E+00 0.000E+00 -.981E+00   -.287E-03 -.368E-11 0.514E-03
   -.228E+02 0.294E-07 0.672E+03   0.219E+02 -.240E-06 -.671E+03   0.896E+00 0.000E+00 -.476E+00   -.111E-03 -.394E-11 0.102E-03
   -.228E+02 0.294E-07 -.672E+03   0.219E+02 -.240E-06 0.671E+03   0.896E+00 0.000E+00 0.476E+00   -.111E-03 -.394E-11 -.102E-03
   0.320E+02 0.268E-07 -.199E+04   -.325E+02 -.225E-06 0.199E+04   0.480E+00 0.000E+00 0.981E+00   -.287E-03 -.366E-11 -.514E-03
   -.637E+02 -.703E-07 0.808E+03   0.630E+02 0.158E-06 -.806E+03   0.735E+00 0.000E+00 -.118E+01   0.741E-04 0.977E-12 0.400E-03
   -.820E+01 -.807E-07 0.278E+03   0.853E+01 0.184E-06 -.278E+03   -.350E+00 0.000E+00 -.580E-01   0.294E-04 0.120E-11 0.557E-04
   -.820E+01 -.807E-07 -.278E+03   0.853E+01 0.184E-06 0.278E+03   -.350E+00 0.000E+00 0.580E-01   0.294E-04 0.121E-11 -.557E-04
   -.637E+02 -.703E-07 -.808E+03   0.630E+02 0.158E-06 0.806E+03   0.735E+00 0.000E+00 0.118E+01   0.741E-04 0.972E-12 -.400E-03
   -.380E+02 0.783E-05 -.498E-03   -.142E-13 0.129E-14 0.114E-12   0.380E+02 0.000E+00 0.178E-14   -.589E-03 0.766E-11 0.855E-07

 POSITION                                       TOTAL-FORCE (eV/Angst)
      1.11083      1.97342      4.94440         0.033871      0.000000      0.012947
      2.98090      0.00000      5.83693         0.003237      0.000000      0.045465
      1.65237      1.97342      7.59000        -0.008300      0.000000      0.043527
      4.43454      1.97342      7.18937         0.013174      0.000000     -0.021573
      0.07604      0.00000      8.76853        -0.003921      0.000000     -0.002228
      4.11118      1.97342     10.02746        -0.014934      0.000000     -0.034441
      1.32034      1.97342     10.34506        -0.014934      0.000000      0.034441
      2.86688      0.00000     11.60399        -0.003921      0.000000      0.002228
      1.64370      1.97342     13.18315         0.013174      0.000000      0.021573
      4.44321      1.97342     12.78253        -0.008300      0.000000     -0.043527
      0.19006      0.00000     14.53559         0.003237      0.000000     -0.045465
      3.90167      1.97342     15.42812         0.033871      0.000000     -0.012947
      5.53178      0.00000      5.96390         0.004636      0.000000     -0.043014
      2.75745      0.00000      8.84578        -0.010108      0.000000      0.010800
      5.54829      0.00000     11.52675        -0.010108      0.000000     -0.010800
      2.74094      0.00000     14.40863         0.004636      0.000000      0.043014
      2.55735      1.97342      5.98840         0.004530      0.000000      0.020413
      5.48682      1.97342      8.74005        -0.022185      0.000000     -0.004180
      2.69598      1.97342     11.63247        -0.022185      0.000000      0.004180
      5.34819      1.97342     14.38412         0.004530      0.000000     -0.020413
    total drift:                                0.043117      0.000008     -0.000498

  FREE ENERGIE OF THE ION-ELECTRON SYSTEM (eV)
  free  energy   TOTEN  =      -156.42747092 eV

  energy  without entropy=     -156.42747092  energy(sigma->0) =     -156.42747092

 total charge

# of ion       s       p       d       tot
    1        1.580   3.408   0.000   4.988
    2        1.562   3.425   0.000   4.987
    3        1.571   3.469   0.000   5.039
    4        1.570   3.448   0.000   5.018
    5        1.566   3.463   0.000   5.029
    6        1.568   3.458   0.000   5.026
    7        1.568   3.458   0.000   5.026
    8        1.566   3.463   0.000   5.029
    9        1.569   3.448   0.000   5.018
   10        1.571   3.469   0.000   5.039
   11        1.562   3.425   0.000   4.987
   12        1.580   3.408   0.000   4.988
   13        2.003   5.799   0.217   8.019
   14        1.998   5.795   0.200   7.993
   15        1.998   5.795   0.200   7.993
   16        2.003   5.799   0.217   8.019
   17        0.558   0.929   2.779   4.266
   18        0.559   1.044   2.668   4.271
   19        0.559   1.044   2.668   4.271
   20        0.558   0.929   2.779   4.266
tot         29.068  68.476  11.729 109.273