 vasp.5.4.4.18Apr17-6-g9f103f2a35 (build Jun 30 2017 11:15:00) complex

 executed on    STALLO_VASP_5.4.4 date 2019.11.25  09:22:57

 INCAR:
 POTCAR:   PAW_PBE O 08Apr2002
 POTCAR:   PAW_PBE Sr_sv 07Sep2000
 POTCAR:   PAW_PBE Ti 08Apr2002
 POTCAR:   PAW_PBE O 08Apr2002
   VRHFIN =O: s2p4

   TITEL  = PAW_PBE O 08Apr2002
   POMASS =   16.000; ZVAL   =    6.000    mass and valenz
   ENMAX  =  400.000; ENMIN  =  300.000 eV
   QCUT   =   -5.520; QGAM   =   11.041    optimization parameters

   Description
     l     E      TYP  RCUT    TYP  RCUT
     0   .000     23  1.200
     0  -.700     23  1.200
     1   .000     23  1.520
     1   .600     23  1.520
     2   .000      7  1.500

 POTCAR:   PAW_PBE Sr_sv 07Sep2000
   VRHFIN =Sr: 4s4p5s

   TITEL  = PAW_PBE Sr_sv 07Sep2000
   POMASS =   87.620; ZVAL   =   10.000    mass and valenz
   ENMAX  =  229.282; ENMIN  =  171.961 eV
   QCUT   =   -4.105; QGAM   =    8.210    optimization parameters

[...]

 POTCAR:   PAW_PBE Ti 08Apr2002
   VRHFIN =Ti: d3 s1

   TITEL  = PAW_PBE Ti 08Apr2002
   POMASS =   47.880; ZVAL   =    4.000    mass and valenz
   ENMAX  =  178.330; ENMIN  =  133.747 eV
   QCUT   =   -3.620; QGAM   =    7.241    optimization parameters

   Description
     l     E      TYP  RCUT    TYP  RCUT
     2   .000     23  2.800
     2   .000     23  2.800
     0   .000     23  2.800
     0  1.500     23  2.800
     1  -.400     23  2.800
     3   .000      7   .000

 Optimization of the real space projectors (new method)

 maximal supplied QI-value         = 24.76
 optimisation between [QCUT,QGAM] = [ 11.39, 22.77] = [ 36.31,145.25] Ry
 Optimized for a Real-space Cutoff    1.00 Angstroem

   l    n(q)    QCUT    max X(q) W(low)/X(q) W(high)/X(q)  e(spline)
   0      7    11.387     4.192    0.89E-04    0.26E-03    0.19E-07
   0      7    11.387     8.473    0.42E-03    0.14E-02    0.17E-06
   1      6    11.387     2.474    0.11E-03    0.26E-03    0.18E-07
   1      6    11.387     3.912    0.39E-03    0.87E-03    0.15E-06
 Optimization of the real space projectors (new method)

[...]

   l    n(q)    QCUT    max X(q) W(low)/X(q) W(high)/X(q)  e(spline)
   0     11    11.338     6.584    0.15E-04    0.24E-05    0.13E-07
   0     11    11.338    11.383    0.41E-04    0.15E-04    0.15E-06
   1     10    11.338     3.802    0.90E-05    0.33E-06    0.26E-07
   1     10    11.338    39.081    0.19E-03    0.53E-04    0.42E-06
   2     10    11.338     4.950    0.16E-04    0.40E-04    0.77E-07
   2     10    11.338    88.754    0.21E-03    0.41E-03    0.42E-06
 Optimization of the real space projectors (new method)

 maximal supplied QI-value         = 13.42
 optimisation between [QCUT,QGAM] = [ 11.40, 22.81] = [ 36.42,145.68] Ry
 Optimized for a Real-space Cutoff    1.56 Angstroem

   l    n(q)    QCUT    max X(q) W(low)/X(q) W(high)/X(q)  e(spline)
   2     10    11.404     5.474    0.19E-04    0.47E-04    0.83E-07
   2     10    11.404    20.898    0.26E-03    0.65E-03    0.73E-06
   0     11    11.404    23.292    0.21E-04    0.14E-04    0.20E-07
   0     11    11.404    27.738    0.14E-03    0.16E-03    0.29E-06
   1     10    11.404     9.492    0.33E-04    0.56E-04    0.16E-06
 PAW_PBE O 08Apr2002                    :
 PAW_PBE Sr_sv 07Sep2000                :
 PAW_PBE Ti 08Apr2002                   :

 POSCAR:  O Sr Ti
  positions in direct lattice
  velocities in cartesian coordinates
 exchange correlation table for  LEXCH =        8
   RHO(1)=    0.500       N(1)  =     2000
   RHO(2)=  100.500       N(2)  =     4000

 ion  position               nearest neighbor table
   1  0.500  0.500  0.298-  17 1.81  14 2.43  13 2.80  13 2.80
   2  0.500  0.999  0.298-  17 1.81  14 2.43  13 2.80  13 2.80
   3  0.999  0.500  0.298-  17 1.81  14 2.43  13 2.80  13 2.80
   4  0.166  0.166  0.418-  18 1.83  17 2.26  15 2.47  14 2.85  14 2.85  13 3.02
   5  0.166  0.668  0.418-  18 1.83  17 2.26  15 2.47  14 2.85  14 2.85  13 3.02
   6  0.668  0.166  0.418-  18 1.83  17 2.26  15 2.47  14 2.85  14 2.85  13 3.02
   7  0.835  0.835  0.540-  19 1.84  18 2.23  16 2.45  15 2.85  15 2.85  14 3.42
   8  0.835  0.331  0.540-  19 1.84  18 2.23  16 2.45  15 2.85  15 2.85  14 3.42
   9  0.331  0.835  0.540-  19 1.84  18 2.23  16 2.45  15 2.85  15 2.85  14 3.42
  10  0.503  0.503  0.660-  20 1.78  19 2.21  16 2.84  16 2.84  15 3.38
  11  0.503  0.994  0.660-  20 1.78  19 2.21  16 2.84  16 2.84  15 3.38
  12  0.994  0.503  0.660-  20 1.78  19 2.21  16 2.84  16 2.84  15 3.38
  13  0.000  0.000  0.290-   3 2.80   2 2.80   1 2.80   2 2.80   1 2.80   3 2.80   4 3.02   5 3.02
                             6 3.02  17 3.37  17 3.37  17 3.37  18 3.45  14 3.79  14 3.79  14 3.79
  14  0.667  0.667  0.390-   1 2.43   2 2.43   3 2.43   5 2.85   6 2.85   4 2.85   5 2.85   4 2.85
                             6 2.85  17 3.38  17 3.38  17 3.38   9 3.42   8 3.42   7 3.42  18 3.54
  15  0.333  0.333  0.512-   6 2.47   5 2.47   4 2.47   9 2.85   7 2.85   8 2.85   7 2.85   8 2.85
                             9 2.85  18 3.37  18 3.37  18 3.37  10 3.38  12 3.38  11 3.38  17 3.46
  16  0.000  0.000  0.634-   7 2.45   8 2.45   9 2.45  10 2.84  12 2.84  11 2.84  11 2.84  12 2.84
                            10 2.84  19 3.38  19 3.38  19 3.38  18 3.41  20 3.44  20 3.44  20 3.44
  17  0.333  0.333  0.339-   1 1.81   2 1.81   3 1.81   5 2.26   6 2.26   4 2.26  13 3.37  13 3.37
                            13 3.37  14 3.38  14 3.38  14 3.38  15 3.46
  18  0.000  0.000  0.463-   4 1.83   6 1.83   5 1.83   7 2.23   8 2.23   9 2.23  15 3.37  15 3.37
                            15 3.37  16 3.41  13 3.45  14 3.54  14 3.54  14 3.54
  19  0.667  0.667  0.583-   9 1.84   8 1.84   7 1.84  10 2.21  11 2.21  12 2.21  16 3.38  16 3.38
                            16 3.38  15 3.52  15 3.52  15 3.52  14 3.87
  20  0.333  0.333  0.694-  10 1.78  11 1.78  12 1.78  16 3.44  16 3.44  16 3.44  15 3.64

  LATTYP: Found a hexagonal cell.
 ALAT       =     5.5816836249
 C/A-ratio  =     3.5787579760

  Lattice vectors:

 A1 = (   2.7908418125,  -4.8338798151,   0.0000000000)
 A2 = (  -5.5816836249,   0.0000000000,   0.0000000000)
 A3 = (   0.0000000000,   0.0000000000, -19.9754947922)

Analysis of symmetry for initial positions (statically):
 Subroutine PRICEL returns:
 Original cell was already a primitive cell.

 Routine SETGRP: Setting up the symmetry group for a
 hexagonal supercell.

 Subroutine GETGRP returns: Found  6 space group operations
 (whereof  6 operations were pure point group operations)
 out of a pool of 24 trial point group operations.

The static configuration has the point symmetry C_3v.

Analysis of symmetry for dynamics (positions and initial velocities):
 Subroutine PRICEL returns:
 Original cell was already a primitive cell.

 Routine SETGRP: Setting up the symmetry group for a
 hexagonal supercell.

 Subroutine GETGRP returns: Found  6 space group operations
 (whereof  6 operations were pure point group operations)
 out of a pool of 24 trial point group operations.

The dynamic configuration has the point symmetry C_3v.

 Subroutine INISYM returns: Found  6 space group operations
 (whereof  6 operations are pure point group operations),
 and found     1 'primitive' translations

 KPOINTS: k-density: 4.0

Automatic generation of k-mesh.
Space group operators:
 irot       det(A)        alpha          n_x          n_y          n_z        tau_x        tau_y        tau_z
    1     1.000000     0.000000     1.000000     0.000000     0.000000     0.000000     0.000000     0.000000
    2     1.000000   120.000000     0.000000     0.000000     1.000000     0.000000     0.000000     0.000000
    3     1.000000   120.000000     0.000000     0.000000    -1.000000     0.000000     0.000000     0.000000
    4    -1.000000   180.000000     0.500000    -0.866025     0.000000     0.000000     0.000000     0.000000
    5    -1.000000   180.000000     1.000000     0.000000     0.000000     0.000000     0.000000     0.000000
    6    -1.000000   180.000000    -0.500000    -0.866025     0.000000     0.000000     0.000000     0.000000

 Subroutine IBZKPT returns following result:

 Found      5 irreducible k-points:

 Following reciprocal coordinates:
            Coordinates               Weight
  0.000000  0.000000  0.000000      1.000000
  0.200000  0.000000  0.000000      6.000000
  0.400000  0.000000  0.000000      6.000000
  0.400000  0.200000  0.000000      6.000000
 -0.400000  0.200000  0.000000      6.000000

 Following cartesian coordinates:
            Coordinates               Weight
  0.000000  0.000000  0.000000      1.000000
  0.035831 -0.020687  0.000000      6.000000
  0.071663 -0.041375  0.000000      6.000000
  0.071663  0.000000  0.000000      6.000000
 -0.071663  0.082749  0.000000      6.000000

 SYSTEM =  unknown system
 POSCAR =   O Sr Ti

 Startparameter for this run:
   NWRITE =      2    write-flag & timer
   PREC   = normal    normal or accurate (medium, high low for compatibility)
   ISTART =      0    job   : 0-new  1-cont  2-samecut
   ICHARG =      2    charge: 1-file 2-atom 10-const
   ISPIN  =      1    spin polarized calculation?
   LNONCOLLINEAR =      F non collinear calculations
   LSORBIT =      F    spin-orbit coupling
   INIWAV =      1    electr: 0-lowe 1-rand  2-diag
   LASPH  =      F    aspherical Exc in radial PAW
   METAGGA=      F    non-selfconsistent MetaGGA calc.

 Electronic Relaxation 1
   ENCUT  =  500.0 eV  36.75 Ry    6.06 a.u.  10.18 10.18 36.42*2*pi/ulx,y,z
   ENINI  =  500.0     initial cutoff
   ENAUG  =  605.4 eV  augmentation charge cutoff
   NELM   =     60;   NELMIN=  4; NELMDL= -5     # of ELM steps
   EDIFF  = 0.1E-05   stopping-criterion for ELM
   LREAL  =      T    real-space projection
   NLSPLINE    = F    spline interpolate recip. space projectors
   LCOMPAT=      F    compatible to vasp.4.4
   GGA_COMPAT  = T    GGA compatible to vasp.4.4-vasp.4.6
   LMAXPAW     = -100 max onsite density
   LMAXMIX     =    2 max onsite mixed and CHGCAR
   VOSKOWN=      0    Vosko Wilk Nusair interpolation
   ROPT   =   -0.00050  -0.00050  -0.00050
 Ionic relaxation
   EDIFFG = 0.1E-04   stopping-criterion for IOM
   NSW    =      0    number of steps for IOM
   NBLOCK =      1;   KBLOCK =      1    inner block; outer block
   IBRION =     -1    ionic relax: 0-MD 1-quasi-New 2-CG
   NFREE  =      0    steps in history (QN), initial steepest desc. (CG)
   ISIF   =      2    stress and relaxation
   IWAVPR =     10    prediction:  0-non 1-charg 2-wave 3-comb
   ISYM   =      2    0-nonsym 1-usesym 2-fastsym
   LCORR  =      T    Harris-Foulkes like correction to forces

   POTIM  = 0.5000    time-step for ionic-motion
   TEIN   =    0.0    initial temperature
   TEBEG  =    0.0;   TEEND  =   0.0 temperature during run
   SMASS  =  -3.00    Nose mass-parameter (am)
   estimated Nose-frequenzy (Omega)   =  0.10E-29 period in steps =****** mass=  -0.712E-27a.u.
   SCALEE = 1.0000    scale energy and forces
   NPACO  =    256;   APACO  = 16.0  distance and # of slots for P.C.
   PSTRESS=    0.0 pullay stress

  Mass of Ions in am
   POMASS =  16.00 87.62 47.88
  Ionic Valenz
   ZVAL   =   6.00 10.00  4.00
  Atomic Wigner-Seitz radii
  virtual crystal weights
[...]
 number of electron     128.0000000 magnetization
 augmentation part      128.0000000 magnetization

[...]

 Broyden mixing:
  rms(total) = 0.37521E+01    rms(broyden)= 0.37516E+01
  rms(prec ) = 0.42021E+01
  weight for this iteration     100.00

[...]

 eigenvalues of (default mixing * dielectric matrix)
  average eigenvalue GAMMA=   0.6848
  0.6848

[...]

 eigenvalue-minimisations  :   946
 total energy-change (2. order) : 0.8749947E-03  (-0.3664909E-03)
 number of electron     128.0000052 magnetization
 augmentation part       13.8512900 magnetization

[...]

 Broyden mixing:
  rms(total) = 0.92406E-04    rms(broyden)= 0.70274E-04
  rms(prec ) = 0.10264E-03
  weight for this iteration     100.00
  WARNING: grid for Broyden might be to small

[...]

 Broyden mixing:
  rms(total) = 0.20087E-03    rms(broyden)= 0.19157E-03
  rms(prec ) = 0.28053E-03
  weight for this iteration     100.00

 eigenvalues of (default mixing * dielectric matrix)
  average eigenvalue GAMMA=   1.7011
  8.3497  5.4439  3.7537  2.7798  2.7798  2.3367  2.3367  1.3621  1.3621  0.2541
  0.5220  0.5220  1.0621  1.0621  1.2109  1.2109  1.0263  1.0263  0.5063  0.5192
  0.9049  0.9049  0.7431  0.7431  0.7724  0.7345

[...]

--------------------------------------- Iteration      1(  32)  ---------------------------------------

 eigenvalue-minimisations  :   509
 total energy-change (2. order) :-0.6110677E-06  (-0.5846663E-06)
 number of electron     128.0000052 magnetization
 augmentation part       13.8538076 magnetization

 Free energy of the ion-electron system (eV)
  alpha Z        PSCENC =       327.81082936
  Ewald energy   TEWEN  =     18716.13716879
  -Hartree energ DENC   =    -27311.70005493
  -exchange      EXHF   =         0.00000000
  -V(xc)+E(xc)   XCENC  =       339.47714414
  PAW double counting   =      6226.78943518    -6056.60332047
  entropy T*S    EENTRO =        -0.03063247
  eigenvalues    EBANDS =     -1331.69318623
  atomic energy  EATOM  =      8937.26825017
  Solvation  Ediel_sol  =         0.00000000
  free energy    TOTEN  =      -152.54436645 eV

  energy without entropy =     -152.51373399  energy(sigma->0) =     -152.52905022

 average (electrostatic) potential at core
  the test charge radii are     0.7215  1.1929  1.2598
  (the norm of the test charge is              1.0000)
       1 -73.4927       2 -73.4927       3 -73.4927       4 -74.6836       5 -74.6836
       6 -74.6836       7 -75.4242       8 -75.4242       9 -75.4242      10 -76.3563
      11 -76.3563      12 -76.3563      13 -40.4317      14 -39.0771      15 -40.2295
      16 -41.0105      17 -28.7350      18 -30.2354      19 -31.0230      20 -31.3776

 E-fermi :  -0.5800     XC(G=0):  -5.8964     alpha+bet : -5.5853

 k-point     1 :       0.0000    0.0000    0.0000
  band No.  band energies     occupation
      1     -34.9473      2.00000
      2     -34.2691      2.00000
      3     -34.1582      2.00000
      4     -33.0239      2.00000
      5     -19.1952      2.00000
      6     -18.8400      2.00000
      7     -18.5699      2.00000
      8     -18.5699      2.00000
      9     -18.1828      2.00000
     10     -18.1828      2.00000
     11     -18.0938      2.00000
     12     -17.4194      2.00000
     13     -17.4194      2.00000
     14     -16.8288      2.00000
     15     -16.8288      2.00000
     16     -16.7933      2.00000
     17     -16.6375      2.00000
     18     -16.4897      2.00000
     19     -16.2851      2.00000
     20     -16.2851      2.00000
     21     -16.1421      2.00000
     22     -16.1421      2.00000
     23     -16.0516      2.00000
     24     -16.0516      2.00000
     25     -15.8442      2.00000
     26     -14.8498      2.00000
     27     -14.8498      2.00000
     28     -14.5890      2.00000
     29      -6.1516      2.00000
     30      -5.5146      2.00000
     31      -5.5146      2.00000
     32      -5.4931      2.00000
     33      -5.2582      2.00000
     34      -5.2582      2.00000
     35      -4.9659      2.00000
     36      -4.6854      2.00000
     37      -4.6580      2.00000
     38      -4.6580      2.00000
     39      -4.5014      2.00000
     40      -4.5014      2.00000
     41      -4.2057      2.00000
     42      -3.9486      2.00000
     43      -3.9486      2.00000
     44      -3.7540      2.00000
     45      -3.7540      2.00000
     46      -3.6458      2.00000
     47      -3.6458      2.00000
     48      -3.5267      2.00000
     49      -3.0953      2.00000
     50      -2.6914      2.00000
     51      -2.6913      2.00000
     52      -2.5143      2.00000
     53      -2.5143      2.00000
     54      -2.3486      2.00000
     55      -2.2430      2.00000
     56      -2.0394      2.00000
     57      -2.0000      2.00000
     58      -1.9999      2.00000
     59      -1.4931      2.00000
     60      -1.4931      2.00000
     61      -1.4732      2.00000
     62      -0.7622      1.99004
     63      -0.7622      1.99003
     64      -0.7250      1.95975
     65      -0.3791      0.00449
     66       0.9960      0.00000
     67       0.9963      0.00000
     68       1.6913      0.00000
     69       2.2307      0.00000
     70       2.3688      0.00000
     71       2.3883      0.00000
     72       3.2257      0.00000
     73       3.8988      0.00000
     74       4.0032      0.00000
     75       4.6521      0.00000
     76       4.8610      0.00000

[...]

 k-point     5 :      -0.4000    0.2000    0.0000
  band No.  band energies     occupation
      1     -34.9461      2.00000
      2     -34.2681      2.00000
      3     -34.1573      2.00000
      4     -33.0233      2.00000
      5     -19.2230      2.00000
      6     -18.9313      2.00000
      7     -18.8469      2.00000
      8     -18.5799      2.00000
      9     -18.2483      2.00000
     10     -18.1347      2.00000
     11     -18.0191      2.00000
     12     -17.6621      2.00000
     13     -17.3927      2.00000
     14     -16.9959      2.00000
     15     -16.7670      2.00000
     16     -16.7325      2.00000
     17     -16.6876      2.00000
     18     -16.6367      2.00000
     19     -16.4634      2.00000
     20     -16.1738      2.00000
     21     -15.9356      2.00000
     22     -15.9048      2.00000
     23     -15.8979      2.00000
     24     -15.7859      2.00000
     25     -15.6000      2.00000
     26     -14.7485      2.00000
     27     -14.7062      2.00000
     28     -14.4983      2.00000
     29      -6.0943      2.00000
     30      -5.9907      2.00000
     31      -5.7981      2.00000
     32      -5.5229      2.00000
     33      -5.2946      2.00000
     34      -5.2504      2.00000
     35      -4.8911      2.00000
     36      -4.8116      2.00000
     37      -4.6314      2.00000
     38      -4.5117      2.00000
     39      -4.3719      2.00000
     40      -4.3166      2.00000
     41      -4.2446      2.00000
     42      -4.1079      2.00000
     43      -3.9832      2.00000
     44      -3.7347      2.00000
     45      -3.7085      2.00000
     46      -3.5828      2.00000
     47      -3.4468      2.00000
     48      -3.3449      2.00000
     49      -3.3270      2.00000
     50      -3.1134      2.00000
     51      -2.9840      2.00000
     52      -2.8634      2.00000
     53      -2.8093      2.00000
     54      -2.6860      2.00000
     55      -2.5299      2.00000
     56      -2.3484      2.00000
     57      -2.0717      2.00000
     58      -1.9448      2.00000
     59      -1.9069      2.00000
     60      -1.5288      2.00000
     61      -1.2650      2.00000
     62      -1.0643      2.00000
     63      -0.9131      2.00000
     64      -0.7552      1.98678
     65      -0.1874      0.00000
     66       0.7721      0.00000
     67       1.0983      0.00000
     68       1.2012      0.00000
     69       1.6800      0.00000
     70       2.2015      0.00000
     71       2.3323      0.00000
     72       2.4797      0.00000
     73       3.5847      0.00000
     74       3.8795      0.00000
     75       4.0899      0.00000
     76       5.4290      0.00000

 soft charge-density along one line, spin component           1
         0         1         2         3         4         5         6         7         8         9
 total charge-density along one line

------------------------ aborting loop because EDIFF is reached ----------------------------------------

 total charge

# of ion       s       p       d       tot
    1        1.580   3.380   0.000   4.960
    2        1.581   3.365   0.000   4.946
    3        1.579   3.460   0.000   5.038
    4        1.571   3.449   0.000   5.020
    5        1.571   3.445   0.000   5.016
    6        1.571   3.464   0.000   5.036
    7        1.571   3.452   0.000   5.023
    8        1.571   3.449   0.000   5.020
    9        1.570   3.464   0.000   5.035
   10        1.578   3.410   0.000   4.988
   11        1.579   3.406   0.000   4.984
   12        1.578   3.426   0.000   5.004
   13        1.990   5.766   0.149   7.906
   14        2.006   5.790   0.246   8.042
   15        2.003   5.789   0.226   8.017
   16        2.005   5.787   0.238   8.030
   17        0.613   1.016   2.994   4.623
   18        0.583   1.002   2.851   4.436
   19        0.576   1.002   2.811   4.389
   20        0.611   0.896   3.155   4.661
tot         29.286  68.218  12.670 110.174

  FORCE on cell =-STRESS in cart. coord.  units (eV):
  Direction    XX          YY          ZZ          XY          YZ          ZX
  Alpha Z   327.81083   327.81083   327.81083
  Ewald   23689.73844 23689.73844-28663.35342    -0.00000     0.00000     0.00000
  Hartree 26034.38967 26034.38967-24757.27087    -0.00000     0.00000     0.00000
  E(xc)    -579.00023  -579.00021  -575.80112    -0.00002    -0.00001    -0.00002
  Local  -51328.80914-51328.81062 51811.62404     0.00128    -0.00018    -0.00032
  n-local  -481.61324  -479.88962  -491.59418     0.96844    -1.17328     1.21946
  augment   115.49252   115.49265   115.10387    -0.00011    -0.00001    -0.00001
  Kinetic  2221.81338  2232.23700  2234.45264     5.25281     0.91282    -0.80522
  Fock        0.00000     0.00000     0.00000     0.00000     0.00000     0.00000
  Total       5.89518     5.89518     0.97178     0.00000    -0.00000     0.00000
  in kB      17.52463    17.52463     2.88883     0.00000    -0.00000     0.00000

 VOLUME and BASIS-vectors are now :
  energy-cutoff  :      500.00
  volume of cell :      538.96
      direct lattice vectors                 reciprocal lattice vectors
     5.581683625  0.000000000  0.000000000     0.179157413 -0.103436581  0.000000000
     2.790841812  4.833879815  0.000000000     0.000000000  0.206873162  0.000000000
     0.000000000  0.000000000 19.975494792     0.000000000  0.000000000  0.050061338

  length of vectors
     5.581683625  5.581683625 19.975494792     0.206873162  0.206873162  0.050061338

 FORCES acting on ions
    electron-ion (+dipol)            ewald-force                    non-local-force                 convergence-correction
   -.163E+02 -.940E+01 0.104E+04   0.282E+02 0.163E+02 -.106E+04   -.119E+02 -.687E+01 0.118E+02   0.162E-03 0.937E-04 -.615E-04
   -.101E-04 0.188E+02 0.104E+04   -.153E-12 -.325E+02 -.106E+04   0.444E-15 0.137E+02 0.118E+02   -.106E-08 -.187E-03 -.615E-04
   0.163E+02 -.940E+01 0.104E+04   -.282E+02 0.163E+02 -.106E+04   0.119E+02 -.687E+01 0.118E+02   -.162E-03 0.937E-04 -.615E-04
   0.658E-01 0.380E-01 0.334E+03   0.710E+01 0.410E+01 -.340E+03   -.717E+01 -.414E+01 0.569E+01   0.138E-03 0.799E-04 -.762E-02
   -.610E-05 -.760E-01 0.334E+03   -.165E-10 -.819E+01 -.340E+03   -.222E-15 0.828E+01 0.569E+01   -.123E-08 -.160E-03 -.762E-02
   -.658E-01 0.380E-01 0.334E+03   -.710E+01 0.410E+01 -.340E+03   0.717E+01 -.414E+01 0.569E+01   -.138E-03 0.799E-04 -.762E-02
   0.155E+02 0.893E+01 -.325E+03   -.959E+01 -.554E+01 0.319E+03   -.588E+01 -.340E+01 0.592E+01   -.423E-03 -.244E-03 -.789E-02
   -.878E-06 -.179E+02 -.325E+03   0.158E-10 0.111E+02 0.319E+03   -.111E-15 0.679E+01 0.592E+01   -.172E-08 0.488E-03 -.789E-02
   -.155E+02 0.893E+01 -.325E+03   0.959E+01 -.554E+01 0.319E+03   0.588E+01 -.340E+01 0.592E+01   0.423E-03 -.244E-03 -.789E-02
   -.192E+02 -.111E+02 -.997E+03   0.309E+02 0.178E+02 0.996E+03   -.117E+02 -.675E+01 0.142E+01   0.402E-02 0.232E-02 -.929E-02
   0.101E-04 0.222E+02 -.997E+03   -.122E-11 -.357E+02 0.996E+03   0.444E-15 0.135E+02 0.142E+01   -.160E-08 -.464E-02 -.929E-02
   0.192E+02 -.111E+02 -.997E+03   -.309E+02 0.178E+02 0.996E+03   0.117E+02 -.675E+01 0.142E+01   -.402E-02 0.232E-02 -.929E-02
   -.713E-05 -.412E-05 0.171E+04   -.769E-11 -.453E-11 -.171E+04   0.390E-17 0.000E+00 -.243E+01   0.225E-09 0.130E-09 0.115E-02
   -.103E-04 -.595E-05 0.697E+03   0.252E-10 0.145E-10 -.703E+03   -.260E-17 0.520E-17 0.660E+01   0.358E-09 0.207E-09 -.124E-01
   -.106E-04 -.614E-05 -.431E+03   -.239E-10 -.139E-10 0.425E+03   -.434E-18 0.520E-17 0.544E+01   0.678E-10 0.392E-10 -.143E-01
   -.113E-04 -.651E-05 -.154E+04   -.550E-11 -.304E-11 0.153E+04   0.173E-17 0.000E+00 0.628E+01   -.196E-09 -.113E-09 -.131E-01
   -.151E-05 -.871E-06 0.485E+03   -.131E-10 -.751E-11 -.487E+03   0.104E-16 -.347E-17 0.160E+01   -.238E-08 -.138E-08 -.322E-02
   -.252E-06 -.145E-06 0.207E+02   0.425E-12 0.403E-12 -.216E+02   0.486E-16 -.694E-17 0.867E+00   -.364E-09 -.210E-09 -.533E-02
   0.422E-06 0.243E-06 -.415E+03   0.119E-10 0.683E-11 0.414E+03   -.347E-16 -.694E-17 0.595E+00   0.128E-09 0.741E-10 -.500E-02
   -.259E-05 -.149E-05 -.795E+03   -.100E-10 -.589E-11 0.789E+03   -.173E-16 -.694E-17 0.551E+01   -.416E-09 -.240E-09 -.472E-02
   -.312E-04 -.180E-04 -.988E+02   0.492E-14 0.249E-13 -.455E-12   -.354E-14 -.139E-16 0.989E+02   0.781E-09 0.451E-09 -.132E+00

 POSITION                                       TOTAL-FORCE (eV/Angst)
      4.18942      2.41876      5.95823         0.003400      0.001963     -0.017517
      5.58168      4.83024      5.95823         0.000000     -0.003926     -0.017517
      6.97395      2.41876      5.95823        -0.003400      0.001963     -0.017517
      1.38939      0.80216      8.35949        -0.012083     -0.006976      0.007981
      2.79084      3.22955      8.35949        -0.000000      0.013952      0.007981
      4.19230      0.80216      8.35949         0.012083     -0.006976      0.007981
      6.98785      4.03444     10.79381        -0.014985     -0.008652      0.043933
      5.58168      1.59888     10.79381         0.000000      0.017304      0.043933
      4.17551      4.03444     10.79381         0.014985     -0.008652      0.043933
      4.21282      2.43227     13.19186        -0.010643     -0.006145      0.063456
      5.58168      4.80322     13.19186        -0.000000      0.012289      0.063456
      6.95055      2.43227     13.19186         0.010643     -0.006145      0.063456
      0.00000      0.00000      5.79610        -0.000000      0.000000     -0.047925
      5.58168      3.22259      7.78295        -0.000000      0.000000     -0.069139
      2.79084      1.61129     10.23191        -0.000000      0.000000     -0.044107
      0.00000      0.00000     12.65494        -0.000000      0.000000     -0.005700
      2.79084      1.61129      6.77567        -0.000000      0.000000     -0.092485
      0.00000      0.00000      9.24353        -0.000000      0.000000     -0.041612
      5.58168      3.22259     11.65167        -0.000000      0.000000     -0.027708
      2.79084      1.61129     13.87188        -0.000000      0.000000      0.035118
    total drift:                               -0.000031     -0.000018     -0.057672

  FREE ENERGIE OF THE ION-ELECTRON SYSTEM (eV)
  free  energy   TOTEN  =      -152.54436645 eV

  energy  without entropy=     -152.51373399  energy(sigma->0) =     -152.52905022

 total charge

# of ion       s       p       d       tot
    1        1.580   3.380   0.000   4.960
    2        1.581   3.365   0.000   4.946
    3        1.579   3.460   0.000   5.038
    4        1.571   3.449   0.000   5.020
    5        1.571   3.445   0.000   5.016
    6        1.571   3.464   0.000   5.036
    7        1.571   3.452   0.000   5.023
    8        1.571   3.449   0.000   5.020
    9        1.570   3.464   0.000   5.035
   10        1.578   3.410   0.000   4.988
   11        1.579   3.406   0.000   4.984
   12        1.578   3.426   0.000   5.004
   13        1.990   5.766   0.149   7.906
   14        2.006   5.790   0.246   8.042
   15        2.003   5.789   0.226   8.017
   16        2.005   5.787   0.238   8.030
   17        0.613   1.016   2.994   4.623
   18        0.583   1.002   2.851   4.436
   19        0.576   1.002   2.811   4.389
   20        0.611   0.896   3.155   4.661
tot         29.286  68.218  12.670 110.174