 vasp.5.4.4.18Apr17-6-g9f103f2a35 (build Jun 30 2017 11:15:00) complex

 executed on    STALLO_VASP_5.4.4 date 2019.11.01  11:03:23

 INCAR:
 POTCAR:   PAW_PBE Sr_sv 07Sep2000
 POTCAR:   PAW_PBE Ti 08Apr2002
 POTCAR:   PAW_PBE O 08Apr2002
 POTCAR:   PAW_PBE Sr_sv 07Sep2000

 POTCAR:   PAW_PBE Ti 08Apr2002

 POTCAR:   PAW_PBE O 08Apr2002

 Optimization of the real space projectors (new method)

 maximal supplied QI-value         = 15.12
 optimisation between [QCUT,QGAM] = [ 11.34, 22.83] = [ 36.00,145.93] Ry
 Optimized for a Real-space Cutoff    1.56 Angstroem

   l    n(q)    QCUT    max X(q) W(low)/X(q) W(high)/X(q)  e(spline)
   0     11    11.338     6.584    0.15E-04    0.24E-05    0.13E-07
   0     11    11.338    11.383    0.41E-04    0.15E-04    0.15E-06
   1     10    11.338     3.802    0.90E-05    0.33E-06    0.26E-07
   1     10    11.338    39.081    0.19E-03    0.53E-04    0.42E-06
   2     10    11.338     4.950    0.16E-04    0.40E-04    0.77E-07
   2     10    11.338    88.754    0.21E-03    0.41E-03    0.42E-06
 Optimization of the real space projectors (new method)

[...]

   l    n(q)    QCUT    max X(q) W(low)/X(q) W(high)/X(q)  e(spline)
   2     10    11.404     5.474    0.89E-05    0.24E-04    0.66E-07
   2     10    11.404    20.898    0.40E-04    0.22E-03    0.47E-06
   0     11    11.404    23.292    0.14E-04    0.42E-06    0.65E-07
   0     11    11.404    27.738    0.59E-04    0.19E-04    0.40E-06
   1     11    11.404     9.492    0.14E-04    0.30E-04    0.10E-06
 Optimization of the real space projectors (new method)

 maximal supplied QI-value         = 24.76
 optimisation between [QCUT,QGAM] = [ 11.39, 22.77] = [ 36.31,145.25] Ry
 Optimized for a Real-space Cutoff    1.03 Angstroem

   l    n(q)    QCUT    max X(q) W(low)/X(q) W(high)/X(q)  e(spline)
   0      7    11.387     4.192    0.55E-04    0.17E-03    0.22E-07
   0      7    11.387     8.473    0.18E-03    0.93E-03    0.17E-06
   1      6    11.387     2.474    0.16E-03    0.14E-03    0.20E-07
   1      6    11.387     3.912    0.19E-03    0.47E-03    0.17E-06
 PAW_PBE Sr_sv 07Sep2000                :
 PAW_PBE Ti 08Apr2002                   :
 PAW_PBE O 08Apr2002                    :

 POSCAR: ICSD_CollCode262269
  positions in direct lattice
  velocities in cartesian coordinates
 exchange correlation table for  LEXCH =        8
   RHO(1)=    0.500       N(1)  =     2000
   RHO(2)=  100.500       N(2)  =     4000

 ion  position               nearest neighbor table
   1  0.000  0.000  0.000-   3 2.79   4 2.79   5 2.79   4 2.79   5 2.79   3 2.79   5 2.79   5 2.79
                             3 2.79   4 2.79   4 2.79   3 2.79   2 3.42   2 3.42   2 3.42   2 3.42
   2  0.500  0.500  0.500-   3 1.97   4 1.97   5 1.97   3 1.97   4 1.97   5 1.97   1 3.42   1 3.42
                             1 3.42   1 3.42   1 3.42   1 3.42   1 3.42   1 3.42
   3  0.500  0.500  0.000-   2 1.97   2 1.97   1 2.79   1 2.79   1 2.79   1 2.79
   4  0.500  0.000  0.500-   2 1.97   2 1.97   1 2.79   1 2.79   1 2.79   1 2.79
   5  0.000  0.500  0.500-   2 1.97   2 1.97   1 2.79   1 2.79   1 2.79   1 2.79

  LATTYP: Found a simple cubic cell.
 ALAT       =     3.9468463416

  Lattice vectors:

 A1 = (   3.9468463416,   0.0000000000,   0.0000000000)
 A2 = (   0.0000000000,   3.9468463416,   0.0000000000)
 A3 = (   0.0000000000,   0.0000000000,   3.9468463416)

Analysis of symmetry for initial positions (statically):
 Subroutine PRICEL returns:
 Original cell was already a primitive cell.

 Routine SETGRP: Setting up the symmetry group for a
 simple cubic supercell.

 Subroutine GETGRP returns: Found 48 space group operations
 (whereof 48 operations were pure point group operations)
 out of a pool of 48 trial point group operations.

The static configuration has the point symmetry O_h .

Analysis of symmetry for dynamics (positions and initial velocities):
 Subroutine PRICEL returns:
 Original cell was already a primitive cell.

 Routine SETGRP: Setting up the symmetry group for a
 simple cubic supercell.

 Subroutine GETGRP returns: Found 48 space group operations
 (whereof 48 operations were pure point group operations)
 out of a pool of 48 trial point group operations.

The dynamic configuration has the point symmetry O_h .

 Subroutine INISYM returns: Found 48 space group operations
 (whereof 48 operations are pure point group operations),
 and found     1 'primitive' translations

 KPOINTS: k-density: 4.0

Automatic generation of k-mesh.
Space group operators:
 irot       det(A)        alpha          n_x          n_y          n_z        tau_x        tau_y        tau_z
    1     1.000000     0.000000     1.000000     0.000000     0.000000     0.000000     0.000000     0.000000
    2    -1.000000     0.000000     1.000000     0.000000     0.000000     0.000000     0.000000     0.000000
    3     1.000000   120.000000    -0.577350    -0.577350    -0.577350     0.000000     0.000000     0.000000
    4    -1.000000   120.000000    -0.577350    -0.577350    -0.577350     0.000000     0.000000     0.000000
    5     1.000000   120.000000     0.577350     0.577350     0.577350     0.000000     0.000000     0.000000
    6    -1.000000   120.000000     0.577350     0.577350     0.577350     0.000000     0.000000     0.000000
    7     1.000000    90.000000     0.000000     0.000000    -1.000000     0.000000     0.000000     0.000000
    8    -1.000000    90.000000     0.000000     0.000000    -1.000000     0.000000     0.000000     0.000000
    9     1.000000   180.000000     0.000000     0.707107     0.707107     0.000000     0.000000     0.000000
   10    -1.000000   180.000000     0.000000     0.707107     0.707107     0.000000     0.000000     0.000000
   11     1.000000    90.000000     0.000000     1.000000     0.000000     0.000000     0.000000     0.000000
   12    -1.000000    90.000000     0.000000     1.000000     0.000000     0.000000     0.000000     0.000000
   13     1.000000   180.000000     0.000000     0.000000     1.000000     0.000000     0.000000     0.000000
   14    -1.000000   180.000000     0.000000     0.000000     1.000000     0.000000     0.000000     0.000000
   15     1.000000   120.000000    -0.577350     0.577350     0.577350     0.000000     0.000000     0.000000
   16    -1.000000   120.000000    -0.577350     0.577350     0.577350     0.000000     0.000000     0.000000
   17     1.000000   120.000000    -0.577350     0.577350    -0.577350     0.000000     0.000000     0.000000
   18    -1.000000   120.000000    -0.577350     0.577350    -0.577350     0.000000     0.000000     0.000000
   19     1.000000    90.000000     0.000000     0.000000     1.000000     0.000000     0.000000     0.000000
   20    -1.000000    90.000000     0.000000     0.000000     1.000000     0.000000     0.000000     0.000000
   21     1.000000    90.000000    -1.000000     0.000000     0.000000     0.000000     0.000000     0.000000
   22    -1.000000    90.000000    -1.000000     0.000000     0.000000     0.000000     0.000000     0.000000
   23     1.000000   180.000000     0.707107     0.000000     0.707107     0.000000     0.000000     0.000000
   24    -1.000000   180.000000     0.707107     0.000000     0.707107     0.000000     0.000000     0.000000
   25     1.000000   120.000000     0.577350    -0.577350     0.577350     0.000000     0.000000     0.000000
   26    -1.000000   120.000000     0.577350    -0.577350     0.577350     0.000000     0.000000     0.000000
   27     1.000000   120.000000    -0.577350    -0.577350     0.577350     0.000000     0.000000     0.000000
   28    -1.000000   120.000000    -0.577350    -0.577350     0.577350     0.000000     0.000000     0.000000
   29     1.000000   180.000000     1.000000     0.000000     0.000000     0.000000     0.000000     0.000000
   30    -1.000000   180.000000     1.000000     0.000000     0.000000     0.000000     0.000000     0.000000
   31     1.000000    90.000000     0.000000    -1.000000     0.000000     0.000000     0.000000     0.000000
   32    -1.000000    90.000000     0.000000    -1.000000     0.000000     0.000000     0.000000     0.000000
   33     1.000000   180.000000     0.707107     0.707107     0.000000     0.000000     0.000000     0.000000
   34    -1.000000   180.000000     0.707107     0.707107     0.000000     0.000000     0.000000     0.000000
   35     1.000000    90.000000     1.000000     0.000000     0.000000     0.000000     0.000000     0.000000
   36    -1.000000    90.000000     1.000000     0.000000     0.000000     0.000000     0.000000     0.000000
   37     1.000000   120.000000     0.577350    -0.577350    -0.577350     0.000000     0.000000     0.000000
   38    -1.000000   120.000000     0.577350    -0.577350    -0.577350     0.000000     0.000000     0.000000
   39     1.000000   180.000000     0.000000     1.000000     0.000000     0.000000     0.000000     0.000000
   40    -1.000000   180.000000     0.000000     1.000000     0.000000     0.000000     0.000000     0.000000
   41     1.000000   120.000000     0.577350     0.577350    -0.577350     0.000000     0.000000     0.000000
   42    -1.000000   120.000000     0.577350     0.577350    -0.577350     0.000000     0.000000     0.000000
   43     1.000000   180.000000     0.000000    -0.707107     0.707107     0.000000     0.000000     0.000000
   44    -1.000000   180.000000     0.000000    -0.707107     0.707107     0.000000     0.000000     0.000000
   45     1.000000   180.000000     0.707107    -0.707107     0.000000     0.000000     0.000000     0.000000
   46    -1.000000   180.000000     0.707107    -0.707107     0.000000     0.000000     0.000000     0.000000
   47     1.000000   180.000000     0.707107     0.000000    -0.707107     0.000000     0.000000     0.000000
   48    -1.000000   180.000000     0.707107     0.000000    -0.707107     0.000000     0.000000     0.000000

 Subroutine IBZKPT returns following result:

 Found     20 irreducible k-points:

 Following reciprocal coordinates:
            Coordinates               Weight
  0.000000  0.000000  0.000000      1.000000
  0.142857  0.000000  0.000000      6.000000
  0.285714  0.000000  0.000000      6.000000
  0.428571  0.000000  0.000000      6.000000
  0.142857  0.142857  0.000000     12.000000
  0.285714  0.142857  0.000000     24.000000
  0.428571  0.142857  0.000000     24.000000
  0.285714  0.285714  0.000000     12.000000
  0.428571  0.285714  0.000000     24.000000
  0.428571  0.428571  0.000000     12.000000
  0.142857  0.142857  0.142857      8.000000
  0.285714  0.142857  0.142857     24.000000
  0.428571  0.142857  0.142857     24.000000
  0.285714  0.285714  0.142857     24.000000
  0.428571  0.285714  0.142857     48.000000
  0.428571  0.428571  0.142857     24.000000
  0.285714  0.285714  0.285714      8.000000
  0.428571  0.285714  0.285714     24.000000
  0.428571  0.428571  0.285714     24.000000
  0.428571  0.428571  0.428571      8.000000

 Following cartesian coordinates:
            Coordinates               Weight
  0.000000  0.000000  0.000000      1.000000
  0.036195  0.000000  0.000000      6.000000
  0.072391  0.000000  0.000000      6.000000
[...]
  Thomas-Fermi vector in A             =   2.446947

 Write flags
   LWAVE        =      T    write WAVECAR
   LDOWNSAMPLE  =      F    k-point downsampling of WAVECAR
   LCHARG       =      T    write CHGCAR
   LVTOT        =      F    write LOCPOT, total local potential
   LVHAR        =      F    write LOCPOT, Hartree potential only
   LELF         =      F    write electronic localiz. function (ELF)
   LORBIT       =      0    0 simple, 1 ext, 2 COOP (PROOUT), +10 PAW based schemes

 Dipole corrections
   LMONO  =      F    monopole corrections only (constant potential shift)
   LDIPOL =      F    correct potential (dipole corrections)
   IDIPOL =      0    1-x, 2-y, 3-z, 4-all directions
   EPSILON=  1.0000000 bulk dielectric constant

 Exchange correlation treatment:
   GGA     =    --    GGA type
   VOSKOWN=      0    Vosko Wilk Nusair interpolation
   LHFCALC =     F    Hartree Fock is set to
   LHFONE  =     F    Hartree Fock one center treatment
   AEXX    =    0.0000 exact exchange contribution

 Linear response parameters
   LEPSILON=     F    determine dielectric tensor
   LRPA    =     F    only Hartree local field effects (RPA)
   LNABLA  =     F    use nabla operator in PAW spheres
   LVEL    =     F    velocity operator in full k-point grid
   LINTERFAST=   F  fast interpolation
   KINTER  =     0    interpolate to denser k-point grid
   CSHIFT  =0.1000    complex shift for real part using Kramers Kronig
   OMEGAMAX=  -1.0    maximum frequency
   DEG_THRESHOLD= 0.2000000E-02 threshold for treating states as degnerate
   RTIME   =   -0.100 relaxation time in fs
  (WPLASMAI=    0.000 imaginary part of plasma frequency in eV, 0.658/RTIME)
   DFIELD  = 0.0000000 0.0000000 0.0000000 field for delta impulse in time

 Orbital magnetization related:
   ORBITALMAG=     F  switch on orbital magnetization
   LCHIMAG   =     F  perturbation theory with respect to B field
   DQ        =  0.001000  dq finite difference perturbation B field
   LLRAUG    =     F  two centre corrections for induced B field

 quasi-Newton-method for relaxation of ions
 charge density and potential will be updated during run
 non-spin polarized calculation
 RMM-DIIS sequential band-by-band and
  variant of blocked Davidson during initial phase
 perform sub-space diagonalisation
    before iterative eigenvector-optimisation
 modified Broyden-mixing scheme, WC =      100.0
 initial mixing is a Kerker type mixing with AMIX =  0.4000 and BMIX =      1.0000
 Hartree-type preconditioning will be used
 using additional bands            4
 real space projection scheme for non local part
 use partial core corrections
 calculate Harris-corrections to forces
   (improved forces if not selfconsistent)
 use gradient corrections
 use of overlap-Matrix (Vanderbilt PP)
 Gauss-broadening in eV      SIGMA  =   0.20

  energy-cutoff  :      500.00
  volume of cell :       61.48
      direct lattice vectors                 reciprocal lattice vectors
     3.946846342  0.000000000  0.000000000     0.253366844  0.000000000  0.000000000
     0.000000000  3.946846342  0.000000000     0.000000000  0.253366844  0.000000000
     0.000000000  0.000000000  3.946846342     0.000000000  0.000000000  0.253366844

  length of vectors
     3.946846342  3.946846342  3.946846342     0.253366844  0.253366844  0.253366844

 k-points in units of 2pi/SCALE and weight: k-density: 4.0
   0.00000000  0.00000000  0.00000000       0.003
   0.03619526  0.00000000  0.00000000       0.017
   0.07239053  0.00000000  0.00000000       0.017
   0.10858579  0.00000000  0.00000000       0.017
   0.03619526  0.03619526  0.00000000       0.035
   0.07239053  0.03619526  0.00000000       0.070
   0.10858579  0.03619526  0.00000000       0.070
   0.07239053  0.07239053  0.00000000       0.035
   0.10858579  0.07239053  0.00000000       0.070
   0.10858579  0.10858579  0.00000000       0.035
   0.03619526  0.03619526  0.03619526       0.023
   0.07239053  0.03619526  0.03619526       0.070
   0.10858579  0.03619526  0.03619526       0.070
   0.07239053  0.07239053  0.03619526       0.070
   0.10858579  0.07239053  0.03619526       0.140
   0.10858579  0.10858579  0.03619526       0.070
   0.07239053  0.07239053  0.07239053       0.023
   0.10858579  0.07239053  0.07239053       0.070
   0.10858579  0.10858579  0.07239053       0.070
   0.10858579  0.10858579  0.10858579       0.023

 k-points in reciprocal lattice and weights: k-density: 4.0
   0.00000000  0.00000000  0.00000000       0.003
   0.14285714  0.00000000  0.00000000       0.017
   0.28571429  0.00000000  0.00000000       0.017
   0.42857143  0.00000000  0.00000000       0.017
   0.14285714  0.14285714  0.00000000       0.035
   0.28571429  0.14285714  0.00000000       0.070
   0.42857143  0.14285714  0.00000000       0.070
   0.28571429  0.28571429  0.00000000       0.035
   0.42857143  0.28571429  0.00000000       0.070
   0.42857143  0.42857143  0.00000000       0.035
   0.14285714  0.14285714  0.14285714       0.023
   0.28571429  0.14285714  0.14285714       0.070
   0.42857143  0.14285714  0.14285714       0.070
   0.28571429  0.28571429  0.14285714       0.070
   0.42857143  0.28571429  0.14285714       0.140
   0.42857143  0.42857143  0.14285714       0.070
   0.28571429  0.28571429  0.28571429       0.023
   0.42857143  0.28571429  0.28571429       0.070
   0.42857143  0.42857143  0.28571429       0.070
   0.42857143  0.42857143  0.42857143       0.023

 position of ions in fractional coordinates (direct lattice)
   0.00000000  0.00000000  0.00000000
   0.50000000  0.50000000  0.50000000
   0.50000000  0.50000000  0.00000000
   0.50000000  0.00000000  0.50000000
   0.00000000  0.50000000  0.50000000

 position of ions in cartesian coordinates  (Angst):
   0.00000000  0.00000000  0.00000000
   1.97342317  1.97342317  1.97342317
   1.97342317  1.97342317  0.00000000
   1.97342317  0.00000000  1.97342317
   0.00000000  1.97342317  1.97342317

 k-point  1 :   0.0000 0.0000 0.0000  plane waves:    1551
 k-point  2 :   0.1429 0.0000 0.0000  plane waves:    1555
 k-point  3 :   0.2857 0.0000 0.0000  plane waves:    1546
 k-point  4 :   0.4286 0.0000 0.0000  plane waves:    1558
 k-point  5 :   0.1429 0.1429 0.0000  plane waves:    1564
 k-point  6 :   0.2857 0.1429 0.0000  plane waves:    1557
 k-point  7 :   0.4286 0.1429 0.0000  plane waves:    1567
 k-point  8 :   0.2857 0.2857 0.0000  plane waves:    1566
 k-point  9 :   0.4286 0.2857 0.0000  plane waves:    1564
 k-point 10 :   0.4286 0.4286 0.0000  plane waves:    1570
 k-point 11 :   0.1429 0.1429 0.1429  plane waves:    1569
 k-point 12 :   0.2857 0.1429 0.1429  plane waves:    1554
 k-point 13 :   0.4286 0.1429 0.1429  plane waves:    1557
 k-point 14 :   0.2857 0.2857 0.1429  plane waves:    1573
 k-point 15 :   0.4286 0.2857 0.1429  plane waves:    1563
 k-point 16 :   0.4286 0.4286 0.1429  plane waves:    1566
 k-point 17 :   0.2857 0.2857 0.2857  plane waves:    1559
 k-point 18 :   0.4286 0.2857 0.2857  plane waves:    1560
 k-point 19 :   0.4286 0.4286 0.2857  plane waves:    1557
 k-point 20 :   0.4286 0.4286 0.4286  plane waves:    1559

 maximum and minimum number of plane-waves per node :       797      763

 maximum number of plane-waves:      1573
 maximum index in each direction:
   IXMAX=    7   IYMAX=    7   IZMAX=    7
   IXMIN=   -7   IYMIN=   -7   IZMIN=   -7

 real space projection operators:
  max/ min on nodes  :       1101.14       1098.21

 parallel 3D FFT for wavefunctions:
    minimum data exchange during FFTs selected (reduces bandwidth)
 parallel 3D FFT for charge:
    minimum data exchange during FFTs selected (reduces bandwidth)

 Broyden mixing: mesh for mixing (old mesh)
   NGX = 15   NGY = 15   NGZ = 15
  (NGX  = 60   NGY  = 60   NGZ  = 60)
  gives a total of   3375 points

 initial charge density was supplied:
 charge density of overlapping atoms calculated
 number of electron      32.0000000 magnetization
 keeping initial charge density in first step

 Maximum index for non-local projection operator         3732
 Maximum index for augmentation-charges        58975 (set IRDMAX)

 First call to EWALD:  gamma=   0.449
 Maximum number of real-space cells 3x 3x 3
 Maximum number of reciprocal cells 3x 3x 3

--------------------------------------- Iteration      1(   1)  ---------------------------------------

 eigenvalue-minimisations  :   800
 total energy-change (2. order) : 0.2985201E+03  (-0.1547137E+04)
 number of electron      32.0000000 magnetization
 augmentation part       32.0000000 magnetization

 Free energy of the ion-electron system (eV)
  alpha Z        PSCENC =       179.60204115
  Ewald energy   TEWEN  =     -1913.70330965
  -Hartree energ DENC   =      -411.87486700
  -exchange      EXHF   =         0.00000000
  -V(xc)+E(xc)   XCENC  =        82.00661982
  PAW double counting   =      1333.61297253    -1284.78446064
  entropy T*S    EENTRO =        -0.03098092
  eigenvalues    EBANDS =        79.37502620
  atomic energy  EATOM  =      2234.31706254
  Solvation  Ediel_sol  =         0.00000000
  free energy    TOTEN  =       298.52010403 eV

  energy without entropy =      298.55108495  energy(sigma->0) =      298.53559449

[...]

 eigenvalue-minimisations  :  1076
 total energy-change (2. order) :-0.3155304E+03  (-0.3035639E+03)
 number of electron      32.0000000 magnetization
 augmentation part       32.0000000 magnetization

[...]

 Broyden mixing:
  rms(total) = 0.18248E+01    rms(broyden)= 0.18245E+01
  rms(prec ) = 0.47568E+01
  weight for this iteration     100.00

[...]

 eigenvalues of (default mixing * dielectric matrix)
  average eigenvalue GAMMA=   0.7810
  0.7810

[...]

 eigenvalue-minimisations  :   879
 total energy-change (2. order) : 0.4566325E-03  (-0.2983786E-03)
 number of electron      32.0000000 magnetization
 augmentation part        3.4048033 magnetization

[...]

 Broyden mixing:
  rms(total) = 0.87199E-03    rms(broyden)= 0.87150E-03
  rms(prec ) = 0.24626E-02
  weight for this iteration     100.00

 eigenvalues of (default mixing * dielectric matrix)
  average eigenvalue GAMMA=   1.4518
  2.3390  2.3390  2.3380  2.0350  1.1690  1.1690  1.0415  1.0415  0.7038  0.8972
  0.8972

[...]

--------------------------------------- Iteration      1(  17)  ---------------------------------------

 eigenvalue-minimisations  :   587
 total energy-change (2. order) :-0.4065946E-06  (-0.3802053E-05)
 number of electron      32.0000000 magnetization
 augmentation part        3.4037547 magnetization

 Free energy of the ion-electron system (eV)
  alpha Z        PSCENC =       179.60204115
  Ewald energy   TEWEN  =     -1913.70330965
  -Hartree energ DENC   =      -449.57651442
  -exchange      EXHF   =         0.00000000
  -V(xc)+E(xc)   XCENC  =        85.82538009
  PAW double counting   =      1546.07746308    -1503.64993509
  entropy T*S    EENTRO =        -0.00000000
  eigenvalues    EBANDS =      -218.62490995
  atomic energy  EATOM  =      2234.31706254
  Solvation  Ediel_sol  =         0.00000000
  free energy    TOTEN  =       -39.73272226 eV

  energy without entropy =      -39.73272226  energy(sigma->0) =      -39.73272226

 average (electrostatic) potential at core
  the test charge radii are     1.1929  1.2598  0.7215
  (the norm of the test charge is              1.0000)
       1 -36.4728       2 -27.1493       3 -71.2607       4 -71.2607       5 -71.2607

 E-fermi :   3.2188     XC(G=0): -10.9867     alpha+bet :-12.2403

 k-point     1 :       0.0000    0.0000    0.0000
  band No.  band energies     occupation
      1     -30.3977      2.00000
      2     -14.9163      2.00000
      3     -13.9395      2.00000
      4     -13.9395      2.00000
      5     -12.4506      2.00000
      6     -12.4506      2.00000
      7     -12.4506      2.00000
      8      -0.3976      2.00000
      9      -0.3976      2.00000
     10      -0.3976      2.00000
     11       1.3119      2.00000
     12       1.3119      2.00000
     13       1.3119      2.00000
     14       2.0815      2.00000
     15       2.0815      2.00000
     16       2.0815      2.00000
     17       4.0618      0.00000
     18       4.0618      0.00000
     19       4.0636      0.00000
     20       7.8330      0.00000

[...]

 k-point    20 :       0.4286    0.4286    0.4286
  band No.  band energies     occupation
      1     -30.3474      2.00000
      2     -13.9236      2.00000
      3     -13.7860      2.00000
      4     -13.7860      2.00000
      5     -12.6293      2.00000
      6     -12.6293      2.00000
      7     -12.5237      2.00000
      8      -2.0294      2.00000
      9      -1.5803      2.00000
     10      -1.5803      2.00000
     11      -1.2889      2.00000
     12      -1.1878      2.00000
     13      -1.1878      2.00000
     14       2.2622      2.00000
     15       2.2622      2.00000
     16       2.3464      2.00000
     17       6.3791      0.00000
     18       6.3932      0.00000
     19       6.3933      0.00000
     20       9.4197      0.00000

 soft charge-density along one line, spin component           1
         0         1         2         3         4         5         6         7         8         9
 total charge-density along one line

------------------------ aborting loop because EDIFF is reached ----------------------------------------

  FORCE on cell =-STRESS in cart. coord.  units (eV):
  Direction    XX          YY          ZZ          XY          YZ          ZX
  Alpha Z   179.60204   179.60204   179.60204
  Ewald    -637.90153  -637.90153  -637.90153     0.00000     0.00000     0.00000
  Hartree   149.84454   149.84454   149.84454    -0.00000    -0.00000    -0.00000
  E(xc)    -144.86603  -144.86603  -144.86603    -0.00000     0.00000     0.00000
  Local     -13.96207   -13.96207   -13.96207    -0.00000     0.00000     0.00000
  n-local  -123.41054  -119.48601  -115.28932    -0.43925    -0.37491    -0.27681
  augment    28.94134    28.94134    28.94134     0.00000     0.00000     0.00000
  Kinetic   548.50586   560.24699   564.52434    -2.48280    -2.65902    -1.72208
  Fock        0.00000     0.00000     0.00000     0.00000     0.00000     0.00000
  Total       0.02207     0.02207     0.02207    -0.00000    -0.00000     0.00000
  in kB       0.57511     0.57511     0.57511    -0.00000    -0.00000     0.00000

 VOLUME and BASIS-vectors are now :
  energy-cutoff  :      500.00
  volume of cell :       61.48
      direct lattice vectors                 reciprocal lattice vectors
     3.946846342  0.000000000  0.000000000     0.253366844  0.000000000  0.000000000
     0.000000000  3.946846342  0.000000000     0.000000000  0.253366844  0.000000000
     0.000000000  0.000000000  3.946846342     0.000000000  0.000000000  0.253366844

  length of vectors
     3.946846342  3.946846342  3.946846342     0.253366844  0.253366844  0.253366844

 FORCES acting on ions
    electron-ion (+dipol)            ewald-force                    non-local-force                 convergence-correction
   -.168E-14 0.237E-15 -.363E-14   -.612E-14 -.325E-14 -.318E-14   0.000E+00 0.000E+00 0.000E+00   0.724E-14 0.727E-14 -.330E-13
   -.146E-14 0.499E-12 -.995E-13   0.477E-14 0.490E-14 0.399E-14   0.000E+00 0.000E+00 0.000E+00   -.792E-15 0.321E-15 0.101E-13
   0.124E-12 0.170E-11 -.112E-11   0.565E-14 0.273E-14 -.453E-14   0.000E+00 0.000E+00 0.000E+00   0.702E-15 0.135E-13 -.321E-13
   0.124E-12 -.269E-16 -.242E-12   0.765E-14 -.446E-14 0.241E-14   0.000E+00 0.000E+00 0.000E+00   -.131E-14 0.160E-13 0.224E-13
   -.183E-15 0.128E-12 0.118E-12   -.117E-13 -.147E-15 0.245E-14   0.000E+00 0.000E+00 0.000E+00   0.562E-14 0.363E-14 0.254E-13
   0.245E-12 0.233E-11 -.135E-11   0.257E-15 -.226E-15 0.113E-14   0.000E+00 0.000E+00 0.000E+00   0.115E-13 0.407E-13 -.720E-14

 POSITION                                       TOTAL-FORCE (eV/Angst)
      0.00000      0.00000      0.00000         0.000000      0.000000      0.000000
      1.97342      1.97342      1.97342         0.000000      0.000000      0.000000
      1.97342      1.97342      0.00000         0.000000      0.000000      0.000000
      1.97342      0.00000      1.97342         0.000000      0.000000      0.000000
      0.00000      1.97342      1.97342         0.000000      0.000000      0.000000
    total drift:                                0.000000      0.000000     -0.000000

  FREE ENERGIE OF THE ION-ELECTRON SYSTEM (eV)
  free  energy   TOTEN  =       -39.73272226 eV

  energy  without entropy=      -39.73272226  energy(sigma->0) =      -39.73272226

 Quasi-Newton relaxation of ions (Broydens 2nd method)
  g(Force)  = 0.000E+00   g(Stress)= 0.141E-04

 Reset! Starting new Quasi-Newton update for ions

 reached required accuracy - stopping structural energy minimisation
 writing wavefunctions